     Program PWSCF v.6.1 (svn rev. 13369) starts on 13Oct2022 at 17: 4:26

     Current dimensions of program PWSCF are:
     Max number of different atomic species (ntypx) = 10
     Max number of k-points (npk) =  40000
     Max angular momentum in pseudopotentials (lmaxx) =  3
               file Gd.rel-pbe-spdn-kjpaw_psl.1.0.0.UPF: wavefunction(s)  5P 5P renormalized
               file H.pbe-kjpaw_psl.0.1.UPF: wavefunction(s)  1S renormalized

     Subspace diagonalization in iterative solution of the eigenvalue problem:
     a serial algorithm will be used

     bravais-lattice index     =            0
     lattice parameter (alat)  =      10.0212  a.u.
     unit-cell volume          =    1006.3788 (a.u.)^3
     number of atoms/cell      =           10
     number of atomic types    =            2
     number of electrons       =        50.00
     number of Kohn-Sham states=           60
     kinetic-energy cutoff     =      50.0000  Ry
     charge density cutoff     =     200.0000  Ry
     convergence threshold     =      1.0E-06
     mixing beta               =       0.7000
     number of iterations used =            8  plain     mixing
     Exchange-correlation      =  SLA  PW   PBX  PBC ( 1  4  3  4 0 0)
     nstep                     =          150

     Non magnetic calculation with spin-orbit

     celldm(1)=  10.021218  celldm(2)=   0.000000  celldm(3)=   0.000000
     celldm(4)=   0.000000  celldm(5)=   0.000000  celldm(6)=   0.000000

     crystal axes: (cart. coord. in units of alat)
               a(1) = (   1.000000   0.000000   0.000000 )
               a(2) = (   0.000000   1.000000   0.000000 )
               a(3) = (   0.000000   0.000000   1.000000 )

     reciprocal axes: (cart. coord. in units 2 pi/alat)
               b(1) = (  1.000000  0.000000  0.000000 )
               b(2) = (  0.000000  1.000000  0.000000 )
               b(3) = (  0.000000  0.000000  1.000000 )

     PseudoPot. # 1 for Gd read from file:
     /home/shaharpit/MeamGdH/dft/qe_potentials/Gd.rel-pbe-spdn-kjpaw_psl.1.0.0.UPF
     MD5 check sum: cf50ec46d1536b4a0251694df1946a53
     Pseudo is Projector augmented-wave + core cor, Zval = 11.0
     Generated using "atomic" code by A. Dal Corso  v.6.2.2
     Shape of augmentation charge: PSQ
     Using radial grid of 1263 points, 10 beta functions with:
                l(1) =   0
                l(2) =   0
                l(3) =   1
                l(4) =   1
                l(5) =   1
                l(6) =   1
                l(7) =   2
                l(8) =   2
                l(9) =   2
               l(10) =   2
     Q(r) pseudized with 0 coefficients

     PseudoPot. # 2 for  H read from file:
     /home/shaharpit/MeamGdH/dft/qe_potentials/H.pbe-kjpaw_psl.0.1.UPF
     MD5 check sum: fbb168fef676c0aaadbafd73f5b1efa8
     Pseudo is Projector augmented-wave, Zval =  1.0
     Generated using "atomic" code by A. Dal Corso  v.5.0.2 svn rev. 9415
     Shape of augmentation charge: PSQ
     Using radial grid of  929 points,  2 beta functions with:
                l(1) =   0
                l(2) =   0
     Q(r) pseudized with 0 coefficients

     atomic species   valence    mass     pseudopotential
        Gd            11.00   157.25000     Gd( 1.00)
        H              1.00     1.00794      H( 1.00)

     No symmetry found

   Cartesian axes

     site n.     atom                  positions (alat units)
         1           Gd  tau(   1) = (   0.0000000   0.0000000   0.0000000  )
         2           Gd  tau(   2) = (   0.0000000   0.5000000   0.5000000  )
         3           Gd  tau(   3) = (   0.5000000   0.0000000   0.5000000  )
         4           Gd  tau(   4) = (   0.5000000   0.5000000   0.0000000  )
         5           H   tau(   5) = (   0.2500000   0.7539000   0.7539000  )
         6           H   tau(   6) = (   0.2500000   0.7501000   0.2500000  )
         7           H   tau(   7) = (   0.2500000   0.2500000   0.2500000  )
         8           H   tau(   8) = (   0.2500000   0.2500000   0.7501000  )
         9           H   tau(   9) = (   0.7501000   0.2500000   0.7501000  )
        10           H   tau(  10) = (   0.7501000   0.2500000   0.2500000  )

     number of k points=    36  gaussian smearing, width (Ry)=  0.0100
                       cart. coord. in units 2pi/alat
        k(    1) = (   0.0000000   0.0000000   0.0000000), wk =   0.0156250
        k(    2) = (   0.0000000   0.0000000   0.2500000), wk =   0.0312500
        k(    3) = (   0.0000000   0.0000000  -0.5000000), wk =   0.0156250
        k(    4) = (   0.0000000   0.2500000   0.2500000), wk =   0.0312500
        k(    5) = (   0.0000000   0.2500000  -0.5000000), wk =   0.0312500
        k(    6) = (   0.0000000  -0.5000000  -0.5000000), wk =   0.0156250
        k(    7) = (   0.2500000   0.2500000   0.2500000), wk =   0.0312500
        k(    8) = (   0.2500000   0.2500000  -0.5000000), wk =   0.0312500
        k(    9) = (   0.2500000  -0.5000000  -0.5000000), wk =   0.0312500
        k(   10) = (  -0.5000000  -0.5000000  -0.5000000), wk =   0.0156250
        k(   11) = (   0.2500000   0.0000000   0.0000000), wk =   0.0312500
        k(   12) = (   0.0000000   0.2500000   0.0000000), wk =   0.0312500
        k(   13) = (  -0.5000000   0.0000000   0.0000000), wk =   0.0156250
        k(   14) = (   0.0000000  -0.5000000   0.0000000), wk =   0.0156250
        k(   15) = (   0.0000000  -0.2500000   0.2500000), wk =   0.0312500
        k(   16) = (   0.2500000   0.0000000  -0.2500000), wk =   0.0312500
        k(   17) = (  -0.2500000   0.0000000  -0.2500000), wk =   0.0312500
        k(   18) = (   0.2500000  -0.2500000   0.0000000), wk =   0.0312500
        k(   19) = (  -0.2500000  -0.2500000   0.0000000), wk =   0.0312500
        k(   20) = (   0.2500000   0.0000000   0.5000000), wk =   0.0312500
        k(   21) = (  -0.5000000  -0.2500000   0.0000000), wk =   0.0312500
        k(   22) = (   0.0000000  -0.5000000   0.2500000), wk =   0.0312500
        k(   23) = (   0.2500000  -0.5000000   0.0000000), wk =   0.0312500
        k(   24) = (  -0.5000000   0.0000000   0.2500000), wk =   0.0312500
        k(   25) = (  -0.5000000   0.0000000   0.5000000), wk =   0.0156250
        k(   26) = (  -0.5000000   0.5000000   0.0000000), wk =   0.0156250
        k(   27) = (  -0.2500000  -0.2500000   0.2500000), wk =   0.0312500
        k(   28) = (  -0.2500000   0.2500000  -0.2500000), wk =   0.0312500
        k(   29) = (   0.2500000  -0.2500000  -0.2500000), wk =   0.0312500
        k(   30) = (  -0.2500000   0.2500000   0.5000000), wk =   0.0312500
        k(   31) = (  -0.5000000  -0.2500000   0.2500000), wk =   0.0312500
        k(   32) = (   0.5000000  -0.2500000  -0.2500000), wk =   0.0312500
        k(   33) = (  -0.2500000  -0.5000000   0.2500000), wk =   0.0312500
        k(   34) = (  -0.2500000   0.5000000  -0.2500000), wk =   0.0312500
        k(   35) = (  -0.5000000   0.2500000   0.5000000), wk =   0.0312500
        k(   36) = (  -0.5000000   0.5000000   0.2500000), wk =   0.0312500

     Check: negative/imaginary core charge=   -0.000002    0.000000

     Initial potential from superposition of free atoms

     starting charge   49.92376, renormalised to   50.00000
     Starting wfc are  116 randomized atomic wfcs
     Checking if some PAW data can be deallocated...

     Self-consistent Calculation

     iteration #  1     ecut=    50.00 Ry     beta=0.70
     Davidson diagonalization with overlap
     ethr =  1.00E-02,  avg # of iterations =  2.0

     total energy              =   -2245.75765963 Ry
     Harris-Foulkes estimate   =   -2246.08004852 Ry
     estimated scf accuracy    <       0.51732192 Ry

[...]

     iteration #  5     ecut=    50.00 Ry     beta=0.70
     Davidson diagonalization with overlap
     c_bands:  2 eigenvalues not converged
     ethr =  4.45E-07,  avg # of iterations =  7.2

[...]

     End of self-consistent calculation

          k = 0.0000 0.0000 0.0000 (  6031 PWs)   bands (ev):

   -34.8280 -34.8280 -34.7758 -34.7758 -34.7703 -34.7703 -34.7629 -34.7629
   -15.6223 -15.6223 -15.6154 -15.6154 -15.6067 -15.6067 -15.3971 -15.3971
   -11.5460 -11.5460 -11.5316 -11.5316 -11.4982 -11.4982 -11.2427 -11.2427
   -11.2348 -11.2348 -11.2272 -11.2272 -11.0173 -11.0173 -11.0018 -11.0018
     1.9788   1.9788   4.2977   4.2977   4.6549   4.6549   4.9768   4.9768
     5.9064   5.9064   6.7776   6.7776   7.5350   7.5350   7.5383   7.5383
     7.5407   7.5407   9.6392   9.6392  10.5656  10.5656  10.5740  10.5740
    10.7351  10.7351  11.7103  11.7103

[...]

          k =-0.5000-0.5000-0.5000 (  6008 PWs)   bands (ev):

[...]

     the Fermi energy is     9.3876 ev

!    total energy              =   -2245.89069199 Ry
     Harris-Foulkes estimate   =   -2245.89069265 Ry
     estimated scf accuracy    <       0.00000077 Ry

     total all-electron energy =    -90250.234077 Ry

     The total energy is the sum of the following terms:

     one-electron contribution =     -52.56989149 Ry
     hartree contribution      =      45.25951021 Ry
     xc contribution           =    -255.66601846 Ry
     ewald contribution        =    -234.85038508 Ry
     one-center paw contrib.   =   -1748.06036230 Ry
     smearing contrib. (-TS)   =      -0.00354486 Ry

     convergence has been achieved in   7 iterations

     Forces acting on atoms (cartesian axes, Ry/au):

     atom    1 type  1   force =     0.01588642    0.01724407    0.00082503
     atom    2 type  1   force =     0.01674603   -0.01552479    0.00080982
     atom    3 type  1   force =    -0.01630858    0.01674340    0.00044682
     atom    4 type  1   force =    -0.01633866   -0.01597420    0.00034461
     atom    5 type  2   force =     0.00015747   -0.00280209   -0.00273493
     atom    6 type  2   force =    -0.00000282   -0.00002408    0.00021577
     atom    7 type  2   force =    -0.00000205   -0.00005519   -0.00007370
     atom    8 type  2   force =    -0.00000489    0.00018880   -0.00000201
     atom    9 type  2   force =    -0.00006325   -0.00002009   -0.00005547
     atom   10 type  2   force =    -0.00006967    0.00022416    0.00022406

     Total force =     0.046442     Total SCF correction =     0.001865

     Computing stress (Cartesian axis) and pressure

     Message from routine stres:
     noncollinear stress + GGA not implemented

     BFGS Geometry Optimization

     number of scf cycles    =   1
     number of bfgs steps    =   0

     enthalpy new            =   -2245.8906919860 Ry

     new trust radius        =       0.0234609649 bohr
     new conv_thr            =       0.0000010000 Ry

     new unit-cell volume =   1006.37882 a.u.^3 (   149.12995 Ang^3 )
     density =      7.07116 g/cm^3

CELL_PARAMETERS (angstrom)
   5.303000000   0.000000000   0.000000000
   0.000000000   5.303000000   0.000000000
   0.000000000   0.000000000   5.303000000

ATOMIC_POSITIONS (crystal)
Gd       0.001585278   0.001720756   0.000082329
Gd       0.001671058   0.498450808   0.500080811
Gd       0.498372595   0.001670795   0.500044587
Gd       0.498369594   0.498405963   0.000034388
H        0.250015714   0.753620385   0.753627086
H        0.249999719   0.750097598   0.250021531
H        0.249999795   0.249994493   0.249992646
H        0.249999512   0.250018840   0.750099799
H        0.750093688   0.249997995   0.750094464
H        0.750093047   0.250022369   0.250022358

     Writing output data file 2304.save
     NEW-OLD atomic charge density approx. for the potential

[...]

     enthalpy old            =   -2245.8906919860 Ry
     enthalpy new            =   -2245.8925990141 Ry

     CASE: enthalpy_new < enthalpy_old

     WARNING: bfgs curvature condition failed, Theta= 0.982
     new trust radius        =       0.0258070613 bohr
     new conv_thr            =       0.0000001395 Ry

[...]

     Total force =     0.013538     Total SCF correction =     0.000189

[...]

     Total force =     0.001832     Total SCF correction =     0.000196
     SCF correction compared to forces is large: reduce conv_thr to get better values

[...]

     new trust radius        =       0.0014890281 bohr
     new conv_thr            =       0.0000000118 Ry

[...]

     Threshold (ethr) on eigenvalues was too large:
     Diagonalizing with lowered threshold

     Davidson diagonalization with overlap
     ethr =  9.81E-10,  avg # of iterations =  3.2

[...]

     number of scf cycles    =   6
     number of bfgs steps    =   5

     enthalpy old            =   -2245.8962909006 Ry
     enthalpy new            =   -2245.8962944361 Ry

     CASE: enthalpy_new < enthalpy_old

     WARNING: bfgs curvature condition failed, Theta= 0.874
     new trust radius        =       0.0016379309 bohr
     new conv_thr            =       0.0000000100 Ry

     new unit-cell volume =   1006.37882 a.u.^3 (   149.12995 Ang^3 )
     density =      7.07116 g/cm^3

[...]

ATOMIC_POSITIONS (crystal)
Gd       0.008338058   0.008984316   0.000454380
Gd       0.008705576   0.491812159   0.500450395
Gd       0.491374526   0.008803207   0.500287723
Gd       0.491359605   0.491628480   0.000269667
H        0.250112196   0.751785799   0.751794000
H        0.250045603   0.750200030   0.250216960
H        0.250042802   0.250121164   0.250077180
H        0.250037699   0.250215162   0.750173025
H        0.750093693   0.250140914   0.750109951
H        0.750090242   0.250308767   0.250266719

     Writing output data file 2304.save
     NEW-OLD atomic charge density approx. for the potential

[...]

     Threshold (ethr) on eigenvalues was too large:
     Diagonalizing with lowered threshold

     Davidson diagonalization with overlap
     ethr =  6.76E-10,  avg # of iterations =  3.4

[...]

     bfgs converged in   7 scf cycles and   6 bfgs steps
     (criteria: energy <  1.0E-04 Ry, force <  1.0E-03Ry/Bohr, cell <  5.0E-01kbar)

     End of BFGS Geometry Optimization

     Final enthalpy =   -2245.8962976075 Ry
Begin final coordinates
     new unit-cell volume =   1006.37882 a.u.^3 (   149.12995 Ang^3 )
     density =      7.07116 g/cm^3

CELL_PARAMETERS (angstrom)
   5.303000000   0.000000000   0.000000000
   0.000000000   5.303000000   0.000000000
   0.000000000   0.000000000   5.303000000

ATOMIC_POSITIONS (crystal)
Gd       0.008338058   0.008984316   0.000454380
Gd       0.008705576   0.491812159   0.500450395
Gd       0.491374526   0.008803207   0.500287723
Gd       0.491359605   0.491628480   0.000269667
H        0.250112196   0.751785799   0.751794000
H        0.250045603   0.750200030   0.250216960
H        0.250042802   0.250121164   0.250077180
H        0.250037699   0.250215162   0.750173025
H        0.750093693   0.250140914   0.750109951
H        0.750090242   0.250308767   0.250266719
End final coordinates

     A final scf calculation at the relaxed structure.
     The G-vectors are recalculated for the final unit cell
     Results may differ from those at the preceding step.

     bravais-lattice index     =            0
     lattice parameter (alat)  =      10.0212  a.u.
     unit-cell volume          =    1006.3788 (a.u.)^3
     number of atoms/cell      =           10
     number of atomic types    =            2
     number of electrons       =        50.00
     number of Kohn-Sham states=           60
     kinetic-energy cutoff     =      50.0000  Ry
     charge density cutoff     =     200.0000  Ry
     convergence threshold     =      1.0E-08
     mixing beta               =       0.7000
     number of iterations used =            8  plain     mixing
     Exchange-correlation      =  SLA  PW   PBX  PBC ( 1  4  3  4 0 0)
     Non magnetic calculation with spin-orbit

     celldm(1)=  10.021218  celldm(2)=   0.000000  celldm(3)=   0.000000
     celldm(4)=   0.000000  celldm(5)=   0.000000  celldm(6)=   0.000000

     crystal axes: (cart. coord. in units of alat)
               a(1) = (   1.000000   0.000000   0.000000 )
               a(2) = (   0.000000   1.000000   0.000000 )
               a(3) = (   0.000000   0.000000   1.000000 )

     reciprocal axes: (cart. coord. in units 2 pi/alat)
               b(1) = (  1.000000  0.000000  0.000000 )
               b(2) = (  0.000000  1.000000  0.000000 )
               b(3) = (  0.000000  0.000000  1.000000 )

     PseudoPot. # 1 for Gd read from file:
     /home/shaharpit/MeamGdH/dft/qe_potentials/Gd.rel-pbe-spdn-kjpaw_psl.1.0.0.UPF
     MD5 check sum: cf50ec46d1536b4a0251694df1946a53
     Pseudo is Projector augmented-wave + core cor, Zval = 11.0
     Generated using "atomic" code by A. Dal Corso  v.6.2.2
     Shape of augmentation charge: PSQ
     Using radial grid of 1263 points, 10 beta functions with:
                l(1) =   0
                l(2) =   0
                l(3) =   1
                l(4) =   1
                l(5) =   1
                l(6) =   1
                l(7) =   2
                l(8) =   2
                l(9) =   2
               l(10) =   2
     Q(r) pseudized with 0 coefficients

     PseudoPot. # 2 for  H read from file:
     /home/shaharpit/MeamGdH/dft/qe_potentials/H.pbe-kjpaw_psl.0.1.UPF
     MD5 check sum: fbb168fef676c0aaadbafd73f5b1efa8
     Pseudo is Projector augmented-wave, Zval =  1.0
     Generated using "atomic" code by A. Dal Corso  v.5.0.2 svn rev. 9415
     Shape of augmentation charge: PSQ
     Using radial grid of  929 points,  2 beta functions with:
                l(1) =   0
                l(2) =   0
     Q(r) pseudized with 0 coefficients

     atomic species   valence    mass     pseudopotential
        Gd            11.00   157.25000     Gd( 1.00)
        H              1.00     1.00794      H( 1.00)

     No symmetry found

   Cartesian axes

     site n.     atom                  positions (alat units)
         1           Gd  tau(   1) = (   0.0083381   0.0089843   0.0004544  )
         2           Gd  tau(   2) = (   0.0087056   0.4918122   0.5004504  )
         3           Gd  tau(   3) = (   0.4913745   0.0088032   0.5002877  )
         4           Gd  tau(   4) = (   0.4913596   0.4916285   0.0002697  )
         5           H   tau(   5) = (   0.2501122   0.7517858   0.7517940  )
         6           H   tau(   6) = (   0.2500456   0.7502000   0.2502170  )
         7           H   tau(   7) = (   0.2500428   0.2501212   0.2500772  )
         8           H   tau(   8) = (   0.2500377   0.2502152   0.7501730  )
         9           H   tau(   9) = (   0.7500937   0.2501409   0.7501100  )
        10           H   tau(  10) = (   0.7500902   0.2503088   0.2502667  )

     number of k points=    36  gaussian smearing, width (Ry)=  0.0100
                       cart. coord. in units 2pi/alat
        k(    1) = (   0.0000000   0.0000000   0.0000000), wk =   0.0156250
        k(    2) = (   0.0000000   0.0000000   0.2500000), wk =   0.0312500
        k(    3) = (   0.0000000   0.0000000  -0.5000000), wk =   0.0156250
        k(    4) = (   0.0000000   0.2500000   0.2500000), wk =   0.0312500
        k(    5) = (   0.0000000   0.2500000  -0.5000000), wk =   0.0312500
        k(    6) = (   0.0000000  -0.5000000  -0.5000000), wk =   0.0156250
        k(    7) = (   0.2500000   0.2500000   0.2500000), wk =   0.0312500
        k(    8) = (   0.2500000   0.2500000  -0.5000000), wk =   0.0312500
        k(    9) = (   0.2500000  -0.5000000  -0.5000000), wk =   0.0312500
        k(   10) = (  -0.5000000  -0.5000000  -0.5000000), wk =   0.0156250
        k(   11) = (   0.2500000   0.0000000   0.0000000), wk =   0.0312500
        k(   12) = (   0.0000000   0.2500000   0.0000000), wk =   0.0312500
        k(   13) = (  -0.5000000   0.0000000   0.0000000), wk =   0.0156250
        k(   14) = (   0.0000000  -0.5000000   0.0000000), wk =   0.0156250
        k(   15) = (   0.0000000  -0.2500000   0.2500000), wk =   0.0312500
        k(   16) = (   0.2500000   0.0000000  -0.2500000), wk =   0.0312500
        k(   17) = (  -0.2500000   0.0000000  -0.2500000), wk =   0.0312500
        k(   18) = (   0.2500000  -0.2500000   0.0000000), wk =   0.0312500
        k(   19) = (  -0.2500000  -0.2500000   0.0000000), wk =   0.0312500
        k(   20) = (   0.2500000   0.0000000   0.5000000), wk =   0.0312500
        k(   21) = (  -0.5000000  -0.2500000   0.0000000), wk =   0.0312500
        k(   22) = (   0.0000000  -0.5000000   0.2500000), wk =   0.0312500
        k(   23) = (   0.2500000  -0.5000000   0.0000000), wk =   0.0312500
        k(   24) = (  -0.5000000   0.0000000   0.2500000), wk =   0.0312500
        k(   25) = (  -0.5000000   0.0000000   0.5000000), wk =   0.0156250
        k(   26) = (  -0.5000000   0.5000000   0.0000000), wk =   0.0156250
        k(   27) = (  -0.2500000  -0.2500000   0.2500000), wk =   0.0312500
        k(   28) = (  -0.2500000   0.2500000  -0.2500000), wk =   0.0312500
        k(   29) = (   0.2500000  -0.2500000  -0.2500000), wk =   0.0312500
        k(   30) = (  -0.2500000   0.2500000   0.5000000), wk =   0.0312500
        k(   31) = (  -0.5000000  -0.2500000   0.2500000), wk =   0.0312500
        k(   32) = (   0.5000000  -0.2500000  -0.2500000), wk =   0.0312500
        k(   33) = (  -0.2500000  -0.5000000   0.2500000), wk =   0.0312500
        k(   34) = (  -0.2500000   0.5000000  -0.2500000), wk =   0.0312500
        k(   35) = (  -0.5000000   0.2500000   0.5000000), wk =   0.0312500
        k(   36) = (  -0.5000000   0.5000000   0.2500000), wk =   0.0312500

     Check: negative/imaginary core charge=   -0.000002    0.000000

     Initial potential from superposition of free atoms

     starting charge   49.92376, renormalised to   50.00000
     Starting wfc are  116 randomized atomic wfcs
     Checking if some PAW data can be deallocated...

     Writing output data file 2304.save

     Self-consistent Calculation

     iteration #  1     ecut=    50.00 Ry     beta=0.70
     Davidson diagonalization with overlap
     c_bands:  2 eigenvalues not converged
     c_bands:  2 eigenvalues not converged
     ethr =  1.00E-06,  avg # of iterations = 14.7

[...]

     total energy              =   -2245.89629505 Ry
     Harris-Foulkes estimate   =   -2245.89629186 Ry
     estimated scf accuracy    <       0.00000006 Ry

     iteration #  9     ecut=    50.00 Ry     beta=0.70
     Davidson diagonalization with overlap
     ethr =  1.14E-10,  avg # of iterations =  3.1

     End of self-consistent calculation

[...]

          k = 0.5000-0.2500-0.2500 (  6004 PWs)   bands (ev):

[...]

          k =-0.5000 0.5000 0.2500 (  6000 PWs)   bands (ev):

   -34.7884 -34.7884 -34.7824 -34.7824 -34.7791 -34.7791 -34.7752 -34.7752
   -15.5838 -15.5834 -15.5753 -15.5749 -15.5628 -15.5623 -15.5519 -15.5515
   -11.4935 -11.4922 -11.4886 -11.4871 -11.4485 -11.4472 -11.4441 -11.4423
   -11.1474 -11.1470 -11.1339 -11.1336 -11.1278 -11.1277 -11.1141 -11.1140
     3.7293   3.7304   3.7394   3.7400   3.8926   3.8937   4.5360   4.5366
     5.7182   5.7186   5.7236   5.7238   8.4745   8.4746   9.6658   9.6659
     9.9875   9.9888  10.0136  10.0148  10.0498  10.0499  10.2947  10.2949
    10.8557  10.8562  11.0206  11.0209

     the Fermi energy is     9.4425 ev

!    total energy              =   -2245.89629761 Ry
     Harris-Foulkes estimate   =   -2245.89629506 Ry
     estimated scf accuracy    <          2.8E-09 Ry

     total all-electron energy =    -90250.239683 Ry

     The total energy is the sum of the following terms:

     one-electron contribution =     -54.39658910 Ry
     hartree contribution      =      46.16273761 Ry
     xc contribution           =    -255.70475500 Ry
     ewald contribution        =    -233.89458537 Ry
     one-center paw contrib.   =   -1748.06036707 Ry
     smearing contrib. (-TS)   =      -0.00273869 Ry

     convergence has been achieved in   9 iterations

     Forces acting on atoms (cartesian axes, Ry/au):

     atom    1 type  1   force =     0.00001563   -0.00007597   -0.00002720
     atom    2 type  1   force =    -0.00016255    0.00008669    0.00003096
     atom    3 type  1   force =     0.00009862    0.00002321    0.00009943
     atom    4 type  1   force =     0.00011412    0.00018015    0.00009037
     atom    5 type  2   force =    -0.00001962   -0.00099379   -0.00097880
     atom    6 type  2   force =     0.00000623    0.00014178    0.00013144
     atom    7 type  2   force =    -0.00000523    0.00017286    0.00018989
     atom    8 type  2   force =    -0.00000632    0.00010529    0.00015870
     atom    9 type  2   force =    -0.00002176    0.00016600    0.00012352
     atom   10 type  2   force =    -0.00001913    0.00019378    0.00018169

     Total force =     0.001522     Total SCF correction =     0.000194
     SCF correction compared to forces is large: reduce conv_thr to get better values

     Computing stress (Cartesian axis) and pressure

     Message from routine stres:
     noncollinear stress + GGA not implemented

     Writing output data file 2304.save

     General routines

     Parallel routines

   This run was terminated on:  17:11:28  13Oct2022

   JOB DONE.
Removing 2304 from /home/shaharpit/tmp