     Program PWSCF v.6.1 (svn rev. 13369) starts on 13Oct2022 at 17: 4:20

     Current dimensions of program PWSCF are:
     Max number of different atomic species (ntypx) = 10
     Max number of k-points (npk) =  40000
     Max angular momentum in pseudopotentials (lmaxx) =  3
               file Gd.rel-pbe-spdn-kjpaw_psl.1.0.0.UPF: wavefunction(s)  5P 5P renormalized
               file H.pbe-kjpaw_psl.0.1.UPF: wavefunction(s)  1S renormalized

     Subspace diagonalization in iterative solution of the eigenvalue problem:
     a serial algorithm will be used

     bravais-lattice index     =            0
     lattice parameter (alat)  =      10.0212  a.u.
     unit-cell volume          =    1006.3788 (a.u.)^3
     number of atoms/cell      =           14
     number of atomic types    =            2
     number of electrons       =        54.00
     number of Kohn-Sham states=           64
     kinetic-energy cutoff     =      50.0000  Ry
     charge density cutoff     =     200.0000  Ry
     convergence threshold     =      1.0E-06
     mixing beta               =       0.7000
     number of iterations used =            8  plain     mixing
     Exchange-correlation      =  SLA  PW   PBX  PBC ( 1  4  3  4 0 0)
     nstep                     =          150

     Non magnetic calculation with spin-orbit

     celldm(1)=  10.021218  celldm(2)=   0.000000  celldm(3)=   0.000000
     celldm(4)=   0.000000  celldm(5)=   0.000000  celldm(6)=   0.000000

     crystal axes: (cart. coord. in units of alat)
               a(1) = (   1.000000   0.000000   0.000000 )
               a(2) = (   0.000000   1.000000   0.000000 )
               a(3) = (   0.000000   0.000000   1.000000 )

     reciprocal axes: (cart. coord. in units 2 pi/alat)
               b(1) = (  1.000000  0.000000  0.000000 )
               b(2) = (  0.000000  1.000000  0.000000 )
               b(3) = (  0.000000  0.000000  1.000000 )

     PseudoPot. # 1 for Gd read from file:
     /home/shaharpit/MeamGdH/dft/qe_potentials/Gd.rel-pbe-spdn-kjpaw_psl.1.0.0.UPF
     MD5 check sum: cf50ec46d1536b4a0251694df1946a53
     Pseudo is Projector augmented-wave + core cor, Zval = 11.0
     Generated using "atomic" code by A. Dal Corso  v.6.2.2
     Shape of augmentation charge: PSQ
     Using radial grid of 1263 points, 10 beta functions with:
                l(1) =   0
                l(2) =   0
                l(3) =   1
                l(4) =   1
                l(5) =   1
                l(6) =   1
                l(7) =   2
                l(8) =   2
                l(9) =   2
               l(10) =   2
     Q(r) pseudized with 0 coefficients

     PseudoPot. # 2 for  H read from file:
     /home/shaharpit/MeamGdH/dft/qe_potentials/H.pbe-kjpaw_psl.0.1.UPF
     MD5 check sum: fbb168fef676c0aaadbafd73f5b1efa8
     Pseudo is Projector augmented-wave, Zval =  1.0
     Generated using "atomic" code by A. Dal Corso  v.5.0.2 svn rev. 9415
     Shape of augmentation charge: PSQ
     Using radial grid of  929 points,  2 beta functions with:
                l(1) =   0
                l(2) =   0
     Q(r) pseudized with 0 coefficients

     atomic species   valence    mass     pseudopotential
        Gd            11.00   157.25000     Gd( 1.00)
        H              1.00     1.00794      H( 1.00)

      2 Sym. Ops. (no inversion) found

   Cartesian axes

     site n.     atom                  positions (alat units)
         1           Gd  tau(   1) = (   0.0000000   0.0000000   0.0000000  )
         2           Gd  tau(   2) = (   0.0000000   0.5000000   0.5000000  )
         3           Gd  tau(   3) = (   0.5000000   0.0000000   0.5000000  )
         4           Gd  tau(   4) = (   0.5000000   0.5000000   0.0000000  )
         5           H   tau(   5) = (   0.2500000   0.7539000   0.7539000  )
         6           H   tau(   6) = (   0.2500000   0.7501000   0.2500000  )
         7           H   tau(   7) = (   0.2500000   0.2500000   0.2500000  )
         8           H   tau(   8) = (   0.2500000   0.2500000   0.7501000  )
         9           H   tau(   9) = (   0.7501000   0.2500000   0.7501000  )
        10           H   tau(  10) = (   0.7501000   0.2500000   0.2500000  )
        11           H   tau(  11) = (   0.7501000   0.7501000   0.2500000  )
        12           H   tau(  12) = (   0.7501000   0.7501000   0.7501000  )
        13           H   tau(  13) = (   0.5001000   0.5001000   0.5001000  )
        14           H   tau(  14) = (   0.5001000   0.0000000   0.0000000  )

     number of k points=    24  gaussian smearing, width (Ry)=  0.0100
                       cart. coord. in units 2pi/alat
        k(    1) = (   0.0000000   0.0000000   0.0000000), wk =   0.0156250
        k(    2) = (   0.0000000   0.0000000   0.2500000), wk =   0.0625000
        k(    3) = (   0.0000000   0.0000000  -0.5000000), wk =   0.0312500
        k(    4) = (   0.0000000   0.2500000   0.2500000), wk =   0.0312500
        k(    5) = (   0.0000000   0.2500000  -0.5000000), wk =   0.0625000
        k(    6) = (   0.0000000  -0.5000000  -0.5000000), wk =   0.0156250
        k(    7) = (   0.2500000   0.2500000   0.2500000), wk =   0.0312500
        k(    8) = (   0.2500000   0.2500000  -0.5000000), wk =   0.0625000
        k(    9) = (   0.2500000  -0.5000000  -0.5000000), wk =   0.0312500
        k(   10) = (  -0.5000000  -0.5000000  -0.5000000), wk =   0.0156250
        k(   11) = (   0.2500000   0.0000000   0.0000000), wk =   0.0312500
        k(   12) = (  -0.5000000   0.0000000   0.0000000), wk =   0.0156250
        k(   13) = (   0.0000000   0.2500000  -0.2500000), wk =   0.0312500
        k(   14) = (   0.2500000   0.0000000  -0.2500000), wk =   0.0625000
        k(   15) = (  -0.2500000   0.0000000  -0.2500000), wk =   0.0625000
        k(   16) = (   0.2500000   0.0000000   0.5000000), wk =   0.0625000
        k(   17) = (  -0.5000000  -0.2500000   0.0000000), wk =   0.0625000
        k(   18) = (  -0.5000000   0.0000000   0.5000000), wk =   0.0312500
        k(   19) = (  -0.2500000   0.2500000  -0.2500000), wk =   0.0625000
        k(   20) = (   0.2500000  -0.2500000  -0.2500000), wk =   0.0312500
        k(   21) = (  -0.2500000   0.2500000   0.5000000), wk =   0.0625000
        k(   22) = (  -0.5000000  -0.2500000   0.2500000), wk =   0.0312500
        k(   23) = (   0.5000000  -0.2500000  -0.2500000), wk =   0.0312500
        k(   24) = (  -0.5000000   0.2500000   0.5000000), wk =   0.0625000

     Check: negative/imaginary core charge=   -0.000002    0.000000

     Initial potential from superposition of free atoms

     starting charge   53.92372, renormalised to   54.00000
     Starting wfc are  124 randomized atomic wfcs
     Checking if some PAW data can be deallocated...

     Self-consistent Calculation

     iteration #  1     ecut=    50.00 Ry     beta=0.70
     Davidson diagonalization with overlap
     ethr =  1.00E-02,  avg # of iterations =  2.3

     total energy              =   -2250.66129790 Ry
     Harris-Foulkes estimate   =   -2251.01477770 Ry
     estimated scf accuracy    <       0.62752656 Ry

[...]

     End of self-consistent calculation

          k = 0.0000 0.0000 0.0000 (  6031 PWs)   bands (ev):

   -34.4411 -34.4411 -34.4022 -34.4022 -34.3332 -34.3332 -34.3039 -34.3039
   -15.2621 -15.2621 -15.2231 -15.2231 -15.1647 -15.1647 -14.9775 -14.9775
   -11.2021 -11.2021 -11.1512 -11.1512 -11.1000 -11.1000 -10.8511 -10.8511
   -10.8357 -10.8357 -10.8248 -10.8248 -10.6052 -10.6052 -10.5768 -10.5768
     1.2846   1.2846   4.4917   4.4917   4.6783   4.6783   4.6792   4.6792
     4.6820   4.6820   6.0403   6.0403   6.2353   6.2353   6.2417   6.2417
     6.2532   6.2532   7.9297   7.9297   8.3758   8.3758  10.7965  10.7965
    10.8034  10.8034  10.9598  10.9598  13.3585  13.3585  13.3593  13.3593

[...]

          k =-0.5000-0.5000-0.5000 (  6008 PWs)   bands (ev):

[...]

     the Fermi energy is    10.1785 ev

!    total energy              =   -2250.78284064 Ry
     Harris-Foulkes estimate   =   -2250.78284064 Ry
     estimated scf accuracy    <       0.00000001 Ry

     total all-electron energy =    -90255.126209 Ry

     The total energy is the sum of the following terms:

     one-electron contribution =     -39.84920836 Ry
     hartree contribution      =      41.94203287 Ry
     xc contribution           =    -258.65938761 Ry
     ewald contribution        =    -246.15875126 Ry
     one-center paw contrib.   =   -1748.05504934 Ry
     smearing contrib. (-TS)   =      -0.00247694 Ry

     convergence has been achieved in   8 iterations

     Forces acting on atoms (cartesian axes, Ry/au):

     atom    1 type  1   force =    -0.00053102    0.00082720    0.00082720
     atom    2 type  1   force =     0.00037747    0.00073758    0.00073758
     atom    3 type  1   force =     0.00008210    0.00013730    0.00020105
     atom    4 type  1   force =     0.00008210    0.00020105    0.00013730
     atom    5 type  2   force =    -0.01128131   -0.00327868   -0.00327868
     atom    6 type  2   force =    -0.01140768   -0.00003165    0.00016758
     atom    7 type  2   force =    -0.01139447    0.00015092    0.00015092
     atom    8 type  2   force =    -0.01140768    0.00016758   -0.00003165
     atom    9 type  2   force =     0.01137050    0.00012711   -0.00012568
     atom   10 type  2   force =     0.01135270    0.00041555    0.00041555
     atom   11 type  2   force =     0.01137050   -0.00012568    0.00012711
     atom   12 type  2   force =     0.01138663   -0.00003918   -0.00003918
     atom   13 type  2   force =    -0.00029536    0.00034204    0.00034204
     atom   14 type  2   force =     0.00029552    0.00036887    0.00036887

     Total force =     0.032561     Total SCF correction =     0.000048

     Computing stress (Cartesian axis) and pressure

     Message from routine stres:
     noncollinear stress + GGA not implemented

     BFGS Geometry Optimization

     number of scf cycles    =   1
     number of bfgs steps    =   0

     enthalpy new            =   -2250.7828406412 Ry

     new trust radius        =       0.0121970279 bohr
     new conv_thr            =       0.0000010000 Ry

     new unit-cell volume =   1006.37882 a.u.^3 (   149.12995 Ang^3 )
     density =      7.11605 g/cm^3

CELL_PARAMETERS (angstrom)
   5.303000000   0.000000000   0.000000000
   0.000000000   5.303000000   0.000000000
   0.000000000   0.000000000   5.303000000

ATOMIC_POSITIONS (crystal)
Gd      -0.000052989   0.000082545   0.000082545
Gd       0.000037667   0.500073601   0.500073601
Gd       0.500008192   0.000013701   0.500020062
Gd       0.500008192   0.500020062   0.000013701
H        0.248874257   0.753572826   0.753572826
H        0.248861647   0.750096842   0.250016722
H        0.248862966   0.250015060   0.250015060
H        0.248861647   0.250016722   0.750096842
H        0.751234643   0.250012684   0.750087458
H        0.751232866   0.250041467   0.250041467
H        0.751234643   0.750087458   0.250012684
H        0.751236252   0.750096090   0.750096090
H        0.500070527   0.500134132   0.500134132
H        0.500129489   0.000036809   0.000036809

     Writing output data file 2301.save
     NEW-OLD atomic charge density approx. for the potential

[...]

     enthalpy old            =   -2250.7828406413 Ry
     enthalpy new            =   -2250.7838503791 Ry

     CASE: enthalpy_new < enthalpy_old

     WARNING: bfgs curvature condition failed, Theta= 0.884
     new trust radius        =       0.0134167307 bohr
     new conv_thr            =       0.0000001010 Ry

[...]

     number of scf cycles    =   6
     number of bfgs steps    =   5

     enthalpy old            =   -2250.7874651690 Ry
     enthalpy new            =   -2250.7883570147 Ry

     CASE: enthalpy_new < enthalpy_old

     new trust radius        =       0.0064389011 bohr
     new conv_thr            =       0.0000000100 Ry

     new unit-cell volume =   1006.37882 a.u.^3 (   149.12995 Ang^3 )
     density =      7.11605 g/cm^3

[...]

ATOMIC_POSITIONS (crystal)
Gd      -0.000441866   0.000518662   0.000518662
Gd       0.000399244   0.500531198   0.500531198
Gd       0.500037602   0.000178342   0.500234569
Gd       0.500037602   0.500234569   0.000178342
H        0.238222063   0.750470478   0.750470478
H        0.238167543   0.750188297   0.250164567
H        0.238185181   0.250228559   0.250228559
H        0.238167543   0.250164567   0.750188297
H        0.761896455   0.250208505   0.750038497
H        0.761879809   0.250493831   0.250493831
H        0.761896455   0.750038497   0.250208505
H        0.761916955   0.750177678   0.750177678
H        0.499743507   0.500472395   0.500472395
H        0.500491910   0.000394423   0.000394423

     Writing output data file 2301.save
     NEW-OLD atomic charge density approx. for the potential

[...]

     Threshold (ethr) on eigenvalues was too large:
     Diagonalizing with lowered threshold

     Davidson diagonalization with overlap
     ethr =  5.74E-08,  avg # of iterations =  1.8

[...]

     Total force =     0.000948     Total SCF correction =     0.000124
     SCF correction compared to forces is large: reduce conv_thr to get better values

[...]

     bfgs converged in   7 scf cycles and   6 bfgs steps
     (criteria: energy <  1.0E-04 Ry, force <  1.0E-03Ry/Bohr, cell <  5.0E-01kbar)

     End of BFGS Geometry Optimization

     Final enthalpy =   -2250.7883722677 Ry
Begin final coordinates
     new unit-cell volume =   1006.37882 a.u.^3 (   149.12995 Ang^3 )
     density =      7.11605 g/cm^3

CELL_PARAMETERS (angstrom)
   5.303000000   0.000000000   0.000000000
   0.000000000   5.303000000   0.000000000
   0.000000000   0.000000000   5.303000000

ATOMIC_POSITIONS (crystal)
Gd      -0.000441866   0.000518662   0.000518662
Gd       0.000399244   0.500531198   0.500531198
Gd       0.500037602   0.000178342   0.500234569
Gd       0.500037602   0.500234569   0.000178342
H        0.238222063   0.750470478   0.750470478
H        0.238167543   0.750188297   0.250164567
H        0.238185181   0.250228559   0.250228559
H        0.238167543   0.250164567   0.750188297
H        0.761896455   0.250208505   0.750038497
H        0.761879809   0.250493831   0.250493831
H        0.761896455   0.750038497   0.250208505
H        0.761916955   0.750177678   0.750177678
H        0.499743507   0.500472395   0.500472395
H        0.500491910   0.000394423   0.000394423
End final coordinates

     A final scf calculation at the relaxed structure.
     The G-vectors are recalculated for the final unit cell
     Results may differ from those at the preceding step.

     bravais-lattice index     =            0
     lattice parameter (alat)  =      10.0212  a.u.
     unit-cell volume          =    1006.3788 (a.u.)^3
     number of atoms/cell      =           14
     number of atomic types    =            2
     number of electrons       =        54.00
     number of Kohn-Sham states=           64
     kinetic-energy cutoff     =      50.0000  Ry
     charge density cutoff     =     200.0000  Ry
     convergence threshold     =      1.0E-08
     mixing beta               =       0.7000
     number of iterations used =            8  plain     mixing
     Exchange-correlation      =  SLA  PW   PBX  PBC ( 1  4  3  4 0 0)
     Non magnetic calculation with spin-orbit

     celldm(1)=  10.021218  celldm(2)=   0.000000  celldm(3)=   0.000000
     celldm(4)=   0.000000  celldm(5)=   0.000000  celldm(6)=   0.000000

     crystal axes: (cart. coord. in units of alat)
               a(1) = (   1.000000   0.000000   0.000000 )
               a(2) = (   0.000000   1.000000   0.000000 )
               a(3) = (   0.000000   0.000000   1.000000 )

     reciprocal axes: (cart. coord. in units 2 pi/alat)
               b(1) = (  1.000000  0.000000  0.000000 )
               b(2) = (  0.000000  1.000000  0.000000 )
               b(3) = (  0.000000  0.000000  1.000000 )

     PseudoPot. # 1 for Gd read from file:
     /home/shaharpit/MeamGdH/dft/qe_potentials/Gd.rel-pbe-spdn-kjpaw_psl.1.0.0.UPF
     MD5 check sum: cf50ec46d1536b4a0251694df1946a53
     Pseudo is Projector augmented-wave + core cor, Zval = 11.0
     Generated using "atomic" code by A. Dal Corso  v.6.2.2
     Shape of augmentation charge: PSQ
     Using radial grid of 1263 points, 10 beta functions with:
                l(1) =   0
                l(2) =   0
                l(3) =   1
                l(4) =   1
                l(5) =   1
                l(6) =   1
                l(7) =   2
                l(8) =   2
                l(9) =   2
               l(10) =   2
     Q(r) pseudized with 0 coefficients

     PseudoPot. # 2 for  H read from file:
     /home/shaharpit/MeamGdH/dft/qe_potentials/H.pbe-kjpaw_psl.0.1.UPF
     MD5 check sum: fbb168fef676c0aaadbafd73f5b1efa8
     Pseudo is Projector augmented-wave, Zval =  1.0
     Generated using "atomic" code by A. Dal Corso  v.5.0.2 svn rev. 9415
     Shape of augmentation charge: PSQ
     Using radial grid of  929 points,  2 beta functions with:
                l(1) =   0
                l(2) =   0
     Q(r) pseudized with 0 coefficients

     atomic species   valence    mass     pseudopotential
        Gd            11.00   157.25000     Gd( 1.00)
        H              1.00     1.00794      H( 1.00)

      2 Sym. Ops. (no inversion) found

   Cartesian axes

     site n.     atom                  positions (alat units)
         1           Gd  tau(   1) = (  -0.0004419   0.0005187   0.0005187  )
         2           Gd  tau(   2) = (   0.0003992   0.5005312   0.5005312  )
         3           Gd  tau(   3) = (   0.5000376   0.0001783   0.5002346  )
         4           Gd  tau(   4) = (   0.5000376   0.5002346   0.0001783  )
         5           H   tau(   5) = (   0.2382221   0.7504705   0.7504705  )
         6           H   tau(   6) = (   0.2381675   0.7501883   0.2501646  )
         7           H   tau(   7) = (   0.2381852   0.2502286   0.2502286  )
         8           H   tau(   8) = (   0.2381675   0.2501646   0.7501883  )
         9           H   tau(   9) = (   0.7618965   0.2502085   0.7500385  )
        10           H   tau(  10) = (   0.7618798   0.2504938   0.2504938  )
        11           H   tau(  11) = (   0.7618965   0.7500385   0.2502085  )
        12           H   tau(  12) = (   0.7619170   0.7501777   0.7501777  )
        13           H   tau(  13) = (   0.4997435   0.5004724   0.5004724  )
        14           H   tau(  14) = (   0.5004919   0.0003944   0.0003944  )

     number of k points=    24  gaussian smearing, width (Ry)=  0.0100
                       cart. coord. in units 2pi/alat
        k(    1) = (   0.0000000   0.0000000   0.0000000), wk =   0.0156250
        k(    2) = (   0.0000000   0.0000000   0.2500000), wk =   0.0625000
        k(    3) = (   0.0000000   0.0000000  -0.5000000), wk =   0.0312500
        k(    4) = (   0.0000000   0.2500000   0.2500000), wk =   0.0312500
        k(    5) = (   0.0000000   0.2500000  -0.5000000), wk =   0.0625000
        k(    6) = (   0.0000000  -0.5000000  -0.5000000), wk =   0.0156250
        k(    7) = (   0.2500000   0.2500000   0.2500000), wk =   0.0312500
        k(    8) = (   0.2500000   0.2500000  -0.5000000), wk =   0.0625000
        k(    9) = (   0.2500000  -0.5000000  -0.5000000), wk =   0.0312500
        k(   10) = (  -0.5000000  -0.5000000  -0.5000000), wk =   0.0156250
        k(   11) = (   0.2500000   0.0000000   0.0000000), wk =   0.0312500
        k(   12) = (  -0.5000000   0.0000000   0.0000000), wk =   0.0156250
        k(   13) = (   0.0000000   0.2500000  -0.2500000), wk =   0.0312500
        k(   14) = (   0.2500000   0.0000000  -0.2500000), wk =   0.0625000
        k(   15) = (  -0.2500000   0.0000000  -0.2500000), wk =   0.0625000
        k(   16) = (   0.2500000   0.0000000   0.5000000), wk =   0.0625000
        k(   17) = (  -0.5000000  -0.2500000   0.0000000), wk =   0.0625000
        k(   18) = (  -0.5000000   0.0000000   0.5000000), wk =   0.0312500
        k(   19) = (  -0.2500000   0.2500000  -0.2500000), wk =   0.0625000
        k(   20) = (   0.2500000  -0.2500000  -0.2500000), wk =   0.0312500
        k(   21) = (  -0.2500000   0.2500000   0.5000000), wk =   0.0625000
        k(   22) = (  -0.5000000  -0.2500000   0.2500000), wk =   0.0312500
        k(   23) = (   0.5000000  -0.2500000  -0.2500000), wk =   0.0312500
        k(   24) = (  -0.5000000   0.2500000   0.5000000), wk =   0.0625000

     Check: negative/imaginary core charge=   -0.000002    0.000000

     Initial potential from superposition of free atoms

     starting charge   53.92372, renormalised to   54.00000
     Starting wfc are  124 randomized atomic wfcs
     Checking if some PAW data can be deallocated...

     Writing output data file 2301.save

     Self-consistent Calculation

[...]

     total energy              =   -2250.78837225 Ry
     Harris-Foulkes estimate   =   -2250.78837229 Ry
     estimated scf accuracy    <       0.00000010 Ry

     iteration #  9     ecut=    50.00 Ry     beta=0.70
     Davidson diagonalization with overlap
     ethr =  1.91E-10,  avg # of iterations =  2.8

     End of self-consistent calculation

[...]

          k = 0.5000-0.2500-0.2500 (  6004 PWs)   bands (ev):

[...]

          k =-0.5000 0.2500 0.5000 (  6000 PWs)   bands (ev):

   -34.5405 -34.5405 -34.5405 -34.5405 -34.1979 -34.1979 -34.1969 -34.1969
   -15.3202 -15.3202 -15.3202 -15.3202 -15.0073 -15.0073 -15.0065 -15.0065
   -11.1877 -11.1875 -11.1874 -11.1872 -11.0608 -11.0605 -11.0605 -11.0601
   -10.7505 -10.7501 -10.7500 -10.7496 -10.6146 -10.6143 -10.6142 -10.6139
     3.8321   3.8322   3.8327   3.8328   4.0189   4.0192   4.0197   4.0200
     5.2960   5.2963   5.2967   5.2969   6.0462   6.0465   6.0467   6.0469
     7.8009   7.8010   7.8022   7.8023  10.4003  10.4004  10.4005  10.4006
    11.0970  11.0971  11.0973  11.0974  11.1902  11.1908  11.1912  11.1916

     the Fermi energy is    10.2077 ev

!    total energy              =   -2250.78837227 Ry
     Harris-Foulkes estimate   =   -2250.78837227 Ry
     estimated scf accuracy    <          2.5E-10 Ry

     total all-electron energy =    -90255.131740 Ry

     The total energy is the sum of the following terms:

     one-electron contribution =     -39.73968395 Ry
     hartree contribution      =      41.88910369 Ry
     xc contribution           =    -258.66569971 Ry
     ewald contribution        =    -246.21421078 Ry
     one-center paw contrib.   =   -1748.05529211 Ry
     smearing contrib. (-TS)   =      -0.00258940 Ry

     convergence has been achieved in   9 iterations

     Forces acting on atoms (cartesian axes, Ry/au):

     atom    1 type  1   force =     0.00019579   -0.00043086   -0.00043086
     atom    2 type  1   force =    -0.00013325   -0.00037463   -0.00037463
     atom    3 type  1   force =    -0.00001984    0.00004070    0.00004264
     atom    4 type  1   force =    -0.00001984    0.00004264    0.00004070
     atom    5 type  2   force =    -0.00006072    0.00007893    0.00007893
     atom    6 type  2   force =    -0.00000516    0.00018055   -0.00003355
     atom    7 type  2   force =    -0.00000168    0.00006699    0.00006699
     atom    8 type  2   force =    -0.00000516   -0.00003355    0.00018055
     atom    9 type  2   force =     0.00000604    0.00011102    0.00009320
     atom   10 type  2   force =     0.00000689    0.00003063    0.00003063
     atom   11 type  2   force =     0.00000604    0.00009320    0.00011102
     atom   12 type  2   force =     0.00001015    0.00014089    0.00014089
     atom   13 type  2   force =    -0.00010610    0.00003717    0.00003717
     atom   14 type  2   force =     0.00012682    0.00001630    0.00001630

     Total force =     0.000961     Total SCF correction =     0.000021

     Computing stress (Cartesian axis) and pressure

     Message from routine stres:
     noncollinear stress + GGA not implemented

     Writing output data file 2301.save

     General routines

     Parallel routines

   This run was terminated on:  17: 9:25  13Oct2022

   JOB DONE.
Removing 2301 from /home/shaharpit/tmp