     Program PWSCF v.6.1 (svn rev. 13369) starts on 13Oct2022 at 17: 4:20

     Current dimensions of program PWSCF are:
     Max number of different atomic species (ntypx) = 10
     Max number of k-points (npk) =  40000
     Max angular momentum in pseudopotentials (lmaxx) =  3
               file Gd.rel-pbe-spdn-kjpaw_psl.1.0.0.UPF: wavefunction(s)  5P 5P renormalized
               file H.pbe-kjpaw_psl.0.1.UPF: wavefunction(s)  1S renormalized

     Subspace diagonalization in iterative solution of the eigenvalue problem:
     a serial algorithm will be used

     bravais-lattice index     =            0
     lattice parameter (alat)  =      10.0212  a.u.
     unit-cell volume          =    1006.3788 (a.u.)^3
     number of atoms/cell      =            8
     number of atomic types    =            2
     number of electrons       =        48.00
     number of Kohn-Sham states=           58
     kinetic-energy cutoff     =      50.0000  Ry
     charge density cutoff     =     200.0000  Ry
     convergence threshold     =      1.0E-06
     mixing beta               =       0.7000
     number of iterations used =            8  plain     mixing
     Exchange-correlation      =  SLA  PW   PBX  PBC ( 1  4  3  4 0 0)
     nstep                     =          150

     Non magnetic calculation with spin-orbit

     celldm(1)=  10.021218  celldm(2)=   0.000000  celldm(3)=   0.000000
     celldm(4)=   0.000000  celldm(5)=   0.000000  celldm(6)=   0.000000

     crystal axes: (cart. coord. in units of alat)
               a(1) = (   1.000000   0.000000   0.000000 )
               a(2) = (   0.000000   1.000000   0.000000 )
               a(3) = (   0.000000   0.000000   1.000000 )

     reciprocal axes: (cart. coord. in units 2 pi/alat)
               b(1) = (  1.000000  0.000000  0.000000 )
               b(2) = (  0.000000  1.000000  0.000000 )
               b(3) = (  0.000000  0.000000  1.000000 )

     PseudoPot. # 1 for Gd read from file:
     /home/shaharpit/MeamGdH/dft/qe_potentials/Gd.rel-pbe-spdn-kjpaw_psl.1.0.0.UPF
     MD5 check sum: cf50ec46d1536b4a0251694df1946a53
     Pseudo is Projector augmented-wave + core cor, Zval = 11.0
     Generated using "atomic" code by A. Dal Corso  v.6.2.2
     Shape of augmentation charge: PSQ
     Using radial grid of 1263 points, 10 beta functions with:
                l(1) =   0
                l(2) =   0
                l(3) =   1
                l(4) =   1
                l(5) =   1
                l(6) =   1
                l(7) =   2
                l(8) =   2
                l(9) =   2
               l(10) =   2
     Q(r) pseudized with 0 coefficients

     PseudoPot. # 2 for  H read from file:
     /home/shaharpit/MeamGdH/dft/qe_potentials/H.pbe-kjpaw_psl.0.1.UPF
     MD5 check sum: fbb168fef676c0aaadbafd73f5b1efa8
     Pseudo is Projector augmented-wave, Zval =  1.0
     Generated using "atomic" code by A. Dal Corso  v.5.0.2 svn rev. 9415
     Shape of augmentation charge: PSQ
     Using radial grid of  929 points,  2 beta functions with:
                l(1) =   0
                l(2) =   0
     Q(r) pseudized with 0 coefficients

     atomic species   valence    mass     pseudopotential
        Gd            11.00   157.25000     Gd( 1.00)
        H              1.00     1.00794      H( 1.00)

      2 Sym. Ops. (no inversion) found

   Cartesian axes

     site n.     atom                  positions (alat units)
         1           Gd  tau(   1) = (   0.0000000   0.0000000   0.0000000  )
         2           Gd  tau(   2) = (   0.0000000   0.5000000   0.5000000  )
         3           Gd  tau(   3) = (   0.5000000   0.0000000   0.5000000  )
         4           Gd  tau(   4) = (   0.5000000   0.5000000   0.0000000  )
         5           H   tau(   5) = (   0.2500000   0.7539000   0.7539000  )
         6           H   tau(   6) = (   0.2500000   0.7501000   0.2500000  )
         7           H   tau(   7) = (   0.2500000   0.2500000   0.2500000  )
         8           H   tau(   8) = (   0.2500000   0.2500000   0.7501000  )

     number of k points=    24  gaussian smearing, width (Ry)=  0.0100
                       cart. coord. in units 2pi/alat
        k(    1) = (   0.0000000   0.0000000   0.0000000), wk =   0.0156250
        k(    2) = (   0.0000000   0.0000000   0.2500000), wk =   0.0625000
        k(    3) = (   0.0000000   0.0000000  -0.5000000), wk =   0.0312500
        k(    4) = (   0.0000000   0.2500000   0.2500000), wk =   0.0312500
        k(    5) = (   0.0000000   0.2500000  -0.5000000), wk =   0.0625000
        k(    6) = (   0.0000000  -0.5000000  -0.5000000), wk =   0.0156250
        k(    7) = (   0.2500000   0.2500000   0.2500000), wk =   0.0312500
        k(    8) = (   0.2500000   0.2500000  -0.5000000), wk =   0.0625000
        k(    9) = (   0.2500000  -0.5000000  -0.5000000), wk =   0.0312500
        k(   10) = (  -0.5000000  -0.5000000  -0.5000000), wk =   0.0156250
        k(   11) = (   0.2500000   0.0000000   0.0000000), wk =   0.0312500
        k(   12) = (  -0.5000000   0.0000000   0.0000000), wk =   0.0156250
        k(   13) = (   0.0000000   0.2500000  -0.2500000), wk =   0.0312500
        k(   14) = (   0.2500000   0.0000000  -0.2500000), wk =   0.0625000
        k(   15) = (  -0.2500000   0.0000000  -0.2500000), wk =   0.0625000
        k(   16) = (   0.2500000   0.0000000   0.5000000), wk =   0.0625000
        k(   17) = (  -0.5000000  -0.2500000   0.0000000), wk =   0.0625000
        k(   18) = (  -0.5000000   0.0000000   0.5000000), wk =   0.0312500
        k(   19) = (  -0.2500000   0.2500000  -0.2500000), wk =   0.0625000
        k(   20) = (   0.2500000  -0.2500000  -0.2500000), wk =   0.0312500
        k(   21) = (  -0.2500000   0.2500000   0.5000000), wk =   0.0625000
        k(   22) = (  -0.5000000  -0.2500000   0.2500000), wk =   0.0312500
        k(   23) = (   0.5000000  -0.2500000  -0.2500000), wk =   0.0312500
        k(   24) = (  -0.5000000   0.2500000   0.5000000), wk =   0.0625000

     Check: negative/imaginary core charge=   -0.000002    0.000000

     Initial potential from superposition of free atoms

     starting charge   47.92377, renormalised to   48.00000
     Starting wfc are  112 randomized atomic wfcs
     Checking if some PAW data can be deallocated...

     Self-consistent Calculation

     iteration #  1     ecut=    50.00 Ry     beta=0.70
     Davidson diagonalization with overlap
     ethr =  1.00E-02,  avg # of iterations =  2.0

     Threshold (ethr) on eigenvalues was too large:
     Diagonalizing with lowered threshold

     Davidson diagonalization with overlap
     ethr =  8.91E-04,  avg # of iterations =  1.1

     total energy              =   -2243.23052557 Ry
     Harris-Foulkes estimate   =   -2243.52353248 Ry
     estimated scf accuracy    <       0.43890419 Ry

[...]

     End of self-consistent calculation

          k = 0.0000 0.0000 0.0000 (  6031 PWs)   bands (ev):

   -35.1031 -35.1031 -35.0535 -35.0535 -35.0470 -35.0470 -35.0391 -35.0391
   -15.8776 -15.8776 -15.8726 -15.8726 -15.8649 -15.8649 -15.6636 -15.6636
   -11.7645 -11.7645 -11.7643 -11.7643 -11.7386 -11.7386 -11.5073 -11.5073
   -11.4782 -11.4782 -11.4778 -11.4778 -11.2883 -11.2883 -11.2497 -11.2497
     2.3901   2.3901   4.7097   4.7097   4.7109   4.7109   5.0942   5.0942
     7.4377   7.4377   7.4378   7.4378   7.4431   7.4431   8.9649   8.9649
     9.9497   9.9497   9.9505   9.9505  10.5003  10.5003  10.5138  10.5138
    10.6790  10.6790

[...]

          k =-0.5000-0.5000-0.5000 (  6008 PWs)   bands (ev):

[...]

     the Fermi energy is     9.3051 ev

!    total energy              =   -2243.36997519 Ry
     Harris-Foulkes estimate   =   -2243.36997514 Ry
     estimated scf accuracy    <       0.00000012 Ry

     total all-electron energy =    -90247.713369 Ry

     The total energy is the sum of the following terms:

     one-electron contribution =     -57.49245074 Ry
     hartree contribution      =      46.18572926 Ry
     xc contribution           =    -254.07702335 Ry
     ewald contribution        =    -229.92053629 Ry
     one-center paw contrib.   =   -1748.06145290 Ry
     smearing contrib. (-TS)   =      -0.00424117 Ry

     convergence has been achieved in   7 iterations

     Forces acting on atoms (cartesian axes, Ry/au):

     atom    1 type  1   force =     0.03287848    0.00092252    0.00092252
     atom    2 type  1   force =     0.03396881    0.00079212    0.00079212
     atom    3 type  1   force =    -0.03343869    0.00026359    0.00026464
     atom    4 type  1   force =    -0.03343869    0.00026464    0.00026359
     atom    5 type  2   force =     0.00012108   -0.00235900   -0.00235900
     atom    6 type  2   force =    -0.00003175   -0.00008804    0.00014634
     atom    7 type  2   force =    -0.00002749    0.00005783    0.00005783
     atom    8 type  2   force =    -0.00003175    0.00014634   -0.00008804

     Total force =     0.066975     Total SCF correction =     0.000232

     Computing stress (Cartesian axis) and pressure

     Message from routine stres:
     noncollinear stress + GGA not implemented

     BFGS Geometry Optimization

     number of scf cycles    =   1
     number of bfgs steps    =   0

     enthalpy new            =   -2243.3699751896 Ry

     new trust radius        =       0.0339872770 bohr
     new conv_thr            =       0.0000010000 Ry

     new unit-cell volume =   1006.37882 a.u.^3 (   149.12995 Ang^3 )
     density =      7.04871 g/cm^3

CELL_PARAMETERS (angstrom)
   5.303000000   0.000000000   0.000000000
   0.000000000   5.303000000   0.000000000
   0.000000000   0.000000000   5.303000000

ATOMIC_POSITIONS (crystal)
Gd       0.003280887   0.000092057   0.000092057
Gd       0.003389689   0.500079044   0.500079044
Gd       0.496663211   0.000026303   0.500026408
Gd       0.496663211   0.500026408   0.000026303
H        0.250012082   0.753664600   0.753664600
H        0.249996832   0.750091215   0.250014603
H        0.249997257   0.250005771   0.250005771
H        0.249996832   0.250014603   0.750091215

     Writing output data file 2303.save
     NEW-OLD atomic charge density approx. for the potential

[...]

     enthalpy old            =   -2243.3699751896 Ry
     enthalpy new            =   -2243.3741557597 Ry

     CASE: enthalpy_new < enthalpy_old

     WARNING: bfgs curvature condition failed, Theta= 0.919
     new trust radius        =       0.0373860048 bohr
     new conv_thr            =       0.0000002953 Ry

[...]

     iteration #  1     ecut=    50.00 Ry     beta=0.70
     Davidson diagonalization with overlap
     c_bands:  2 eigenvalues not converged
     ethr =  1.00E-06,  avg # of iterations =  7.4

[...]

     number of scf cycles    =   5
     number of bfgs steps    =   4

     enthalpy old            =   -2243.3819913908 Ry
     enthalpy new            =   -2243.3842989910 Ry

     CASE: enthalpy_new < enthalpy_old

     new trust radius        =       0.0015419204 bohr
     new conv_thr            =       0.0000000106 Ry

     new unit-cell volume =   1006.37882 a.u.^3 (   149.12995 Ang^3 )
     density =      7.04871 g/cm^3

[...]

ATOMIC_POSITIONS (crystal)
Gd       0.020309358   0.000660850   0.000660850
Gd       0.021118941   0.500588313   0.500588313
Gd       0.479233685   0.000251647   0.500204801
Gd       0.479233685   0.500204801   0.000251647
H        0.250079556   0.751931573   0.751931573
H        0.250006033   0.750109245   0.250117171
H        0.250012709   0.250136400   0.250136400
H        0.250006033   0.250117171   0.750109245

     Writing output data file 2303.save
     NEW-OLD atomic charge density approx. for the potential

[...]

     Threshold (ethr) on eigenvalues was too large:
     Diagonalizing with lowered threshold

     Davidson diagonalization with overlap
     ethr =  5.45E-10,  avg # of iterations =  3.2

[...]

     Total force =     0.001575     Total SCF correction =     0.000141

[...]

     bfgs converged in   6 scf cycles and   5 bfgs steps
     (criteria: energy <  1.0E-04 Ry, force <  1.0E-03Ry/Bohr, cell <  5.0E-01kbar)

     End of BFGS Geometry Optimization

     Final enthalpy =   -2243.3843016962 Ry
Begin final coordinates
     new unit-cell volume =   1006.37882 a.u.^3 (   149.12995 Ang^3 )
     density =      7.04871 g/cm^3

CELL_PARAMETERS (angstrom)
   5.303000000   0.000000000   0.000000000
   0.000000000   5.303000000   0.000000000
   0.000000000   0.000000000   5.303000000

ATOMIC_POSITIONS (crystal)
Gd       0.020309358   0.000660850   0.000660850
Gd       0.021118941   0.500588313   0.500588313
Gd       0.479233685   0.000251647   0.500204801
Gd       0.479233685   0.500204801   0.000251647
H        0.250079556   0.751931573   0.751931573
H        0.250006033   0.750109245   0.250117171
H        0.250012709   0.250136400   0.250136400
H        0.250006033   0.250117171   0.750109245
End final coordinates

     A final scf calculation at the relaxed structure.
     The G-vectors are recalculated for the final unit cell
     Results may differ from those at the preceding step.

     bravais-lattice index     =            0
     lattice parameter (alat)  =      10.0212  a.u.
     unit-cell volume          =    1006.3788 (a.u.)^3
     number of atoms/cell      =            8
     number of atomic types    =            2
     number of electrons       =        48.00
     number of Kohn-Sham states=           58
     kinetic-energy cutoff     =      50.0000  Ry
     charge density cutoff     =     200.0000  Ry
     convergence threshold     =      1.1E-08
     mixing beta               =       0.7000
     number of iterations used =            8  plain     mixing
     Exchange-correlation      =  SLA  PW   PBX  PBC ( 1  4  3  4 0 0)
     Non magnetic calculation with spin-orbit

     celldm(1)=  10.021218  celldm(2)=   0.000000  celldm(3)=   0.000000
     celldm(4)=   0.000000  celldm(5)=   0.000000  celldm(6)=   0.000000

     crystal axes: (cart. coord. in units of alat)
               a(1) = (   1.000000   0.000000   0.000000 )
               a(2) = (   0.000000   1.000000   0.000000 )
               a(3) = (   0.000000   0.000000   1.000000 )

     reciprocal axes: (cart. coord. in units 2 pi/alat)
               b(1) = (  1.000000  0.000000  0.000000 )
               b(2) = (  0.000000  1.000000  0.000000 )
               b(3) = (  0.000000  0.000000  1.000000 )

     PseudoPot. # 1 for Gd read from file:
     /home/shaharpit/MeamGdH/dft/qe_potentials/Gd.rel-pbe-spdn-kjpaw_psl.1.0.0.UPF
     MD5 check sum: cf50ec46d1536b4a0251694df1946a53
     Pseudo is Projector augmented-wave + core cor, Zval = 11.0
     Generated using "atomic" code by A. Dal Corso  v.6.2.2
     Shape of augmentation charge: PSQ
     Using radial grid of 1263 points, 10 beta functions with:
                l(1) =   0
                l(2) =   0
                l(3) =   1
                l(4) =   1
                l(5) =   1
                l(6) =   1
                l(7) =   2
                l(8) =   2
                l(9) =   2
               l(10) =   2
     Q(r) pseudized with 0 coefficients

     PseudoPot. # 2 for  H read from file:
     /home/shaharpit/MeamGdH/dft/qe_potentials/H.pbe-kjpaw_psl.0.1.UPF
     MD5 check sum: fbb168fef676c0aaadbafd73f5b1efa8
     Pseudo is Projector augmented-wave, Zval =  1.0
     Generated using "atomic" code by A. Dal Corso  v.5.0.2 svn rev. 9415
     Shape of augmentation charge: PSQ
     Using radial grid of  929 points,  2 beta functions with:
                l(1) =   0
                l(2) =   0
     Q(r) pseudized with 0 coefficients

     atomic species   valence    mass     pseudopotential
        Gd            11.00   157.25000     Gd( 1.00)
        H              1.00     1.00794      H( 1.00)

      2 Sym. Ops. (no inversion) found

   Cartesian axes

     site n.     atom                  positions (alat units)
         1           Gd  tau(   1) = (   0.0203094   0.0006609   0.0006609  )
         2           Gd  tau(   2) = (   0.0211189   0.5005883   0.5005883  )
         3           Gd  tau(   3) = (   0.4792337   0.0002516   0.5002048  )
         4           Gd  tau(   4) = (   0.4792337   0.5002048   0.0002516  )
         5           H   tau(   5) = (   0.2500796   0.7519316   0.7519316  )
         6           H   tau(   6) = (   0.2500060   0.7501092   0.2501172  )
         7           H   tau(   7) = (   0.2500127   0.2501364   0.2501364  )
         8           H   tau(   8) = (   0.2500060   0.2501172   0.7501092  )

     number of k points=    24  gaussian smearing, width (Ry)=  0.0100
                       cart. coord. in units 2pi/alat
        k(    1) = (   0.0000000   0.0000000   0.0000000), wk =   0.0156250
        k(    2) = (   0.0000000   0.0000000   0.2500000), wk =   0.0625000
        k(    3) = (   0.0000000   0.0000000  -0.5000000), wk =   0.0312500
        k(    4) = (   0.0000000   0.2500000   0.2500000), wk =   0.0312500
        k(    5) = (   0.0000000   0.2500000  -0.5000000), wk =   0.0625000
        k(    6) = (   0.0000000  -0.5000000  -0.5000000), wk =   0.0156250
        k(    7) = (   0.2500000   0.2500000   0.2500000), wk =   0.0312500
        k(    8) = (   0.2500000   0.2500000  -0.5000000), wk =   0.0625000
        k(    9) = (   0.2500000  -0.5000000  -0.5000000), wk =   0.0312500
        k(   10) = (  -0.5000000  -0.5000000  -0.5000000), wk =   0.0156250
        k(   11) = (   0.2500000   0.0000000   0.0000000), wk =   0.0312500
        k(   12) = (  -0.5000000   0.0000000   0.0000000), wk =   0.0156250
        k(   13) = (   0.0000000   0.2500000  -0.2500000), wk =   0.0312500
        k(   14) = (   0.2500000   0.0000000  -0.2500000), wk =   0.0625000
        k(   15) = (  -0.2500000   0.0000000  -0.2500000), wk =   0.0625000
        k(   16) = (   0.2500000   0.0000000   0.5000000), wk =   0.0625000
        k(   17) = (  -0.5000000  -0.2500000   0.0000000), wk =   0.0625000
        k(   18) = (  -0.5000000   0.0000000   0.5000000), wk =   0.0312500
        k(   19) = (  -0.2500000   0.2500000  -0.2500000), wk =   0.0625000
        k(   20) = (   0.2500000  -0.2500000  -0.2500000), wk =   0.0312500
        k(   21) = (  -0.2500000   0.2500000   0.5000000), wk =   0.0625000
        k(   22) = (  -0.5000000  -0.2500000   0.2500000), wk =   0.0312500
        k(   23) = (   0.5000000  -0.2500000  -0.2500000), wk =   0.0312500
        k(   24) = (  -0.5000000   0.2500000   0.5000000), wk =   0.0625000

     Check: negative/imaginary core charge=   -0.000002    0.000000

     Initial potential from superposition of free atoms

     starting charge   47.92377, renormalised to   48.00000
     Starting wfc are  112 randomized atomic wfcs
     Checking if some PAW data can be deallocated...

     Writing output data file 2303.save

     Self-consistent Calculation

     iteration #  1     ecut=    50.00 Ry     beta=0.70
     Davidson diagonalization with overlap
     c_bands:  1 eigenvalues not converged
     c_bands:  1 eigenvalues not converged
     c_bands:  2 eigenvalues not converged
     ethr =  1.00E-06,  avg # of iterations = 12.6

[...]

     total energy              =   -2243.38430169 Ry
     Harris-Foulkes estimate   =   -2243.38430169 Ry
     estimated scf accuracy    <       0.00000001 Ry

     iteration #  9     ecut=    50.00 Ry     beta=0.70
     Davidson diagonalization with overlap
     ethr =  2.34E-11,  avg # of iterations =  4.3

     End of self-consistent calculation

[...]

          k = 0.5000-0.2500-0.2500 (  6004 PWs)   bands (ev):

[...]

          k =-0.5000 0.2500 0.5000 (  6000 PWs)   bands (ev):

   -35.0653 -35.0653 -35.0626 -35.0626 -35.0521 -35.0521 -35.0499 -35.0499
   -15.8554 -15.8553 -15.8531 -15.8531 -15.8169 -15.8169 -15.8152 -15.8151
   -11.7609 -11.7607 -11.7601 -11.7596 -11.6982 -11.6977 -11.6972 -11.6969
   -11.4067 -11.4064 -11.4062 -11.4054 -11.3642 -11.3637 -11.3637 -11.3632
     3.7108   3.7114   3.7160   3.7167   4.3308   4.3313   4.3392   4.3398
     8.3529   8.3531   8.3559   8.3561   9.5358   9.5361   9.5365   9.5369
     9.8084   9.8091   9.8125   9.8132  10.1118  10.1122  10.1146  10.1150
    10.7666  10.7669

     the Fermi energy is     9.4353 ev

!    total energy              =   -2243.38430169 Ry
     Harris-Foulkes estimate   =   -2243.38430170 Ry
     estimated scf accuracy    <          6.9E-09 Ry

     total all-electron energy =    -90247.727696 Ry

     The total energy is the sum of the following terms:

     one-electron contribution =     -62.16283855 Ry
     hartree contribution      =      48.49285523 Ry
     xc contribution           =    -254.17921649 Ry
     ewald contribution        =    -227.46992973 Ry
     one-center paw contrib.   =   -1748.06211664 Ry
     smearing contrib. (-TS)   =      -0.00305551 Ry

     convergence has been achieved in   9 iterations

     Forces acting on atoms (cartesian axes, Ry/au):

     atom    1 type  1   force =     0.00010350   -0.00001003   -0.00001003
     atom    2 type  1   force =    -0.00013563    0.00012588    0.00012588
     atom    3 type  1   force =     0.00021614    0.00014496    0.00017712
     atom    4 type  1   force =     0.00021614    0.00017712    0.00014496
     atom    5 type  2   force =    -0.00013084   -0.00097438   -0.00097438
     atom    6 type  2   force =    -0.00009091    0.00022278    0.00006801
     atom    7 type  2   force =    -0.00008750    0.00024566    0.00024566
     atom    8 type  2   force =    -0.00009091    0.00006801    0.00022278

     Total force =     0.001558     Total SCF correction =     0.000255
     SCF correction compared to forces is large: reduce conv_thr to get better values

     Computing stress (Cartesian axis) and pressure

     Message from routine stres:
     noncollinear stress + GGA not implemented

     Writing output data file 2303.save

     General routines

     Parallel routines

   This run was terminated on:  17:10:18  13Oct2022

   JOB DONE.
Removing 2303 from /home/shaharpit/tmp