     Program PWSCF v.6.1 (svn rev. 13369) starts on 13Oct2022 at 17: 8:11

     Current dimensions of program PWSCF are:
     Max number of different atomic species (ntypx) = 10
     Max number of k-points (npk) =  40000
     Max angular momentum in pseudopotentials (lmaxx) =  3
               file Gd.rel-pbe-spdn-kjpaw_psl.1.0.0.UPF: wavefunction(s)  5P 5P renormalized
               file H.pbe-kjpaw_psl.0.1.UPF: wavefunction(s)  1S renormalized

     Subspace diagonalization in iterative solution of the eigenvalue problem:
     a serial algorithm will be used

     bravais-lattice index     =            0
     lattice parameter (alat)  =      13.6588  a.u.
     unit-cell volume          =     880.8636 (a.u.)^3
     number of atoms/cell      =           10
     number of atomic types    =            2
     number of electrons       =        50.00
     number of Kohn-Sham states=           60
     kinetic-energy cutoff     =      50.0000  Ry
     charge density cutoff     =     200.0000  Ry
     convergence threshold     =      1.0E-06
     mixing beta               =       0.7000
     number of iterations used =            8  plain     mixing
     Exchange-correlation      =  SLA  PW   PBX  PBC ( 1  4  3  4 0 0)
     nstep                     =          150

     Non magnetic calculation with spin-orbit

     celldm(1)=  13.658752  celldm(2)=   0.000000  celldm(3)=   0.000000
     celldm(4)=   0.000000  celldm(5)=   0.000000  celldm(6)=   0.000000

     crystal axes: (cart. coord. in units of alat)
               a(1) = (   1.000000   0.000000   0.000000 )
               a(2) = (  -0.250003   0.433017   0.000000 )
               a(3) = (   0.000000   0.000000   0.798309 )

     reciprocal axes: (cart. coord. in units 2 pi/alat)
               b(1) = (  1.000000  0.577353  0.000000 )
               b(2) = (  0.000000  2.309381  0.000000 )
               b(3) = (  0.000000  0.000000  1.252647 )

     PseudoPot. # 1 for Gd read from file:
     /home/shaharpit/MeamGdH/dft/qe_potentials/Gd.rel-pbe-spdn-kjpaw_psl.1.0.0.UPF
     MD5 check sum: cf50ec46d1536b4a0251694df1946a53
     Pseudo is Projector augmented-wave + core cor, Zval = 11.0
     Generated using "atomic" code by A. Dal Corso  v.6.2.2
     Shape of augmentation charge: PSQ
     Using radial grid of 1263 points, 10 beta functions with:
                l(1) =   0
                l(2) =   0
                l(3) =   1
                l(4) =   1
                l(5) =   1
                l(6) =   1
                l(7) =   2
                l(8) =   2
                l(9) =   2
               l(10) =   2
     Q(r) pseudized with 0 coefficients

     PseudoPot. # 2 for  H read from file:
     /home/shaharpit/MeamGdH/dft/qe_potentials/H.pbe-kjpaw_psl.0.1.UPF
     MD5 check sum: fbb168fef676c0aaadbafd73f5b1efa8
     Pseudo is Projector augmented-wave, Zval =  1.0
     Generated using "atomic" code by A. Dal Corso  v.5.0.2 svn rev. 9415
     Shape of augmentation charge: PSQ
     Using radial grid of  929 points,  2 beta functions with:
                l(1) =   0
                l(2) =   0
     Q(r) pseudized with 0 coefficients

     atomic species   valence    mass     pseudopotential
        Gd            11.00   157.25000     Gd( 1.00)
        H              1.00     1.00794      H( 1.00)

     No symmetry found

   Cartesian axes

     site n.     atom                  positions (alat units)
         1           Gd  tau(   1) = (   0.2499738   0.1443244   0.5987320  )
         2           Gd  tau(   2) = (   0.7499738   0.1443244   0.5987320  )
         3           Gd  tau(   3) = (   0.0000227   0.2886921   0.1995773  )
         4           Gd  tau(   4) = (   0.5000227   0.2886921   0.1995773  )
         5           H   tau(   5) = (   0.2603489   0.1351878   0.7734021  )
         6           H   tau(   6) = (   0.7141741   0.1153989   0.7679736  )
         7           H   tau(   7) = (   0.7240968   0.3952575   0.4070579  )
         8           H   tau(   8) = (   0.2676216   0.4208487   0.3987555  )
         9           H   tau(   9) = (  -0.0020534   0.4258284   0.2957736  )
        10           H   tau(  10) = (   0.7594248   0.0214343   0.2383752  )

     number of k points=    36  gaussian smearing, width (Ry)=  0.0100
                       cart. coord. in units 2pi/alat
        k(    1) = (   0.0000000   0.0000000   0.0000000), wk =   0.0156250
        k(    2) = (   0.0000000   0.0000000   0.3131618), wk =   0.0312500
        k(    3) = (   0.0000000   0.0000000  -0.6263236), wk =   0.0156250
        k(    4) = (   0.0000000   0.5773452   0.0000000), wk =   0.0312500
        k(    5) = (   0.0000000   0.5773452   0.3131618), wk =   0.0312500
        k(    6) = (   0.0000000   0.5773452  -0.6263236), wk =   0.0312500
        k(    7) = (   0.0000000  -1.1546904   0.0000000), wk =   0.0156250
        k(    8) = (   0.0000000  -1.1546904   0.3131618), wk =   0.0312500
        k(    9) = (   0.0000000  -1.1546904  -0.6263236), wk =   0.0156250
        k(   10) = (   0.2500000   0.1443383   0.0000000), wk =   0.0312500
        k(   11) = (   0.2500000   0.1443383   0.3131618), wk =   0.0312500
        k(   12) = (   0.2500000   0.1443383  -0.6263236), wk =   0.0312500
        k(   13) = (   0.2500000   0.7216835   0.0000000), wk =   0.0312500
        k(   14) = (   0.2500000   0.7216835   0.3131618), wk =   0.0312500
        k(   15) = (   0.2500000   0.7216835  -0.6263236), wk =   0.0312500
        k(   16) = (   0.2500000  -1.0103521   0.0000000), wk =   0.0312500
        k(   17) = (   0.2500000  -1.0103521   0.3131618), wk =   0.0312500
        k(   18) = (   0.2500000  -1.0103521  -0.6263236), wk =   0.0312500
        k(   19) = (   0.2500000  -0.4330069   0.0000000), wk =   0.0312500
        k(   20) = (   0.2500000  -0.4330069   0.3131618), wk =   0.0312500
        k(   21) = (   0.2500000  -0.4330069  -0.6263236), wk =   0.0312500
        k(   22) = (  -0.5000000  -0.2886766   0.0000000), wk =   0.0156250
        k(   23) = (  -0.5000000  -0.2886766   0.3131618), wk =   0.0312500
        k(   24) = (  -0.5000000  -0.2886766  -0.6263236), wk =   0.0156250
        k(   25) = (  -0.5000000   0.2886686   0.0000000), wk =   0.0312500
        k(   26) = (  -0.5000000   0.2886686   0.3131618), wk =   0.0312500
        k(   27) = (  -0.5000000   0.2886686  -0.6263236), wk =   0.0312500
        k(   28) = (  -0.5000000  -1.4433670   0.0000000), wk =   0.0156250
        k(   29) = (  -0.5000000  -1.4433670   0.3131618), wk =   0.0312500
        k(   30) = (  -0.5000000  -1.4433670  -0.6263236), wk =   0.0156250
        k(   31) = (   0.0000000  -0.5773452   0.3131618), wk =   0.0312500
        k(   32) = (  -0.2500000  -0.1443383   0.3131618), wk =   0.0312500
        k(   33) = (  -0.2500000  -0.7216835   0.3131618), wk =   0.0312500
        k(   34) = (  -0.2500000   1.0103521   0.3131618), wk =   0.0312500
        k(   35) = (  -0.2500000   0.4330069   0.3131618), wk =   0.0312500
        k(   36) = (   0.5000000  -0.2886686   0.3131618), wk =   0.0312500

     Initial potential from superposition of free atoms

     starting charge   49.92376, renormalised to   50.00000
     Starting wfc are  116 randomized atomic wfcs
     Checking if some PAW data can be deallocated...

     Self-consistent Calculation

     iteration #  1     ecut=    50.00 Ry     beta=0.70
     Davidson diagonalization with overlap
     ethr =  1.00E-02,  avg # of iterations =  2.0

     total energy              =   -2243.82064048 Ry
     Harris-Foulkes estimate   =   -2244.25101115 Ry
     estimated scf accuracy    <       0.75910804 Ry

[...]

     End of self-consistent calculation

          k = 0.0000 0.0000 0.0000 (  5289 PWs)   bands (ev):

   -33.4048 -33.4048 -33.2020 -33.2020 -32.9533 -32.9533 -32.7746 -32.7746
   -14.5633 -14.5633 -14.3347 -14.3347 -14.0605 -14.0605 -13.8613 -13.8613
   -10.8017 -10.8017 -10.5538 -10.5538 -10.2940 -10.2940 -10.0428 -10.0428
    -9.6002  -9.6002  -9.2938  -9.2938  -9.2054  -9.2054  -8.8451  -8.8451
     3.7227   3.7227   5.9551   5.9551   6.2585   6.2585   7.0435   7.0435
     8.3656   8.3656   8.7309   8.7309   9.3389   9.3389   9.9280   9.9280
    10.6706  10.6706  11.4285  11.4285  11.8383  11.8383  12.1723  12.1723
    12.2955  12.2955  12.9134  12.9134

[...]

          k =-0.5000-0.2887 0.0000 (  5254 PWs)   bands (ev):

[...]

     the Fermi energy is    10.9819 ev

!    total energy              =   -2243.97778084 Ry
     Harris-Foulkes estimate   =   -2243.97778110 Ry
     estimated scf accuracy    <       0.00000039 Ry

     total all-electron energy =    -90248.321166 Ry

     The total energy is the sum of the following terms:

     one-electron contribution =     -44.83239020 Ry
     hartree contribution      =      45.30263725 Ry
     xc contribution           =    -257.09596983 Ry
     ewald contribution        =    -239.23544904 Ry
     one-center paw contrib.   =   -1748.11304027 Ry
     smearing contrib. (-TS)   =      -0.00356876 Ry

     convergence has been achieved in   9 iterations

     Forces acting on atoms (cartesian axes, Ry/au):

     atom    1 type  1   force =    -0.05878375    0.04185837   -0.80043321
     atom    2 type  1   force =     0.16429312    0.11185733   -0.76024671
     atom    3 type  1   force =     0.00974227   -0.78880956   -0.52519208
     atom    4 type  1   force =    -0.04776001   -0.85794212   -0.22004237
     atom    5 type  2   force =     0.04957989   -0.04868476    0.81295569
     atom    6 type  2   force =    -0.15296439   -0.12589599    0.77056397
     atom    7 type  2   force =     0.00459182    0.01103030   -0.01034209
     atom    8 type  2   force =    -0.00213659   -0.00077339   -0.00429105
     atom    9 type  2   force =    -0.01579142    0.79744286    0.53006051
     atom   10 type  2   force =     0.04922905    0.85991699    0.20696735

     Total force =     2.439087     Total SCF correction =     0.001907

     Computing stress (Cartesian axis) and pressure

     Message from routine stres:
     noncollinear stress + GGA not implemented

     BFGS Geometry Optimization

     number of scf cycles    =   1
     number of bfgs steps    =   0

     enthalpy new            =   -2243.9777808418 Ry

     new trust radius        =       0.5000000000 bohr
     new conv_thr            =       0.0000010000 Ry

     new unit-cell volume =    880.86361 a.u.^3 (   130.53052 Ang^3 )
     density =      8.07873 g/cm^3

CELL_PARAMETERS (angstrom)
   7.227900000   0.000000000   0.000000000
  -1.807000000   3.129800000   0.000000000
   0.000000000   0.000000000   5.770100000

ATOMIC_POSITIONS (crystal)
Gd       0.331976788   0.336995062   0.711673623
Gd       0.842048647   0.343174244   0.713597834
Gd       0.149664045   0.597067563   0.224852730
Gd       0.645940343   0.590964863   0.239463922
H        0.339220745   0.307902336   1.007725979
H        0.772174568   0.255386488   0.998896177
H        0.952718950   0.913773703   0.509404800
H        0.510501261   0.971831728   0.499294536
H        0.260795257   1.053794544   0.395880380
H        0.792659395   0.125409469   0.308510020

     Writing output data file 2309.save
     NEW-OLD atomic charge density approx. for the potential

[...]

     enthalpy old            =   -2243.9777808417 Ry
     enthalpy new            =   -2245.4851547029 Ry

     CASE: enthalpy_new < enthalpy_old

[...]

     iteration #  1     ecut=    50.00 Ry     beta=0.70
     Davidson diagonalization with overlap
     c_bands:  1 eigenvalues not converged
     ethr =  1.00E-06,  avg # of iterations =  4.7

[...]

     Threshold (ethr) on eigenvalues was too large:
     Diagonalizing with lowered threshold

     Davidson diagonalization with overlap
     ethr =  7.05E-08,  avg # of iterations =  1.6

[...]

     Total force =     0.002581     Total SCF correction =     0.000358
     SCF correction compared to forces is large: reduce conv_thr to get better values

[...]

     Total force =     0.002321     Total SCF correction =     0.000087

[...]

     number of scf cycles    =  35
     number of bfgs steps    =  34

     enthalpy old            =   -2245.7349615842 Ry
     enthalpy new            =   -2245.7349742033 Ry

     CASE: enthalpy_new < enthalpy_old

     new trust radius        =       0.0053283370 bohr
     new conv_thr            =       0.0000000100 Ry

     new unit-cell volume =    880.86361 a.u.^3 (   130.53052 Ang^3 )
     density =      8.07873 g/cm^3

[...]

ATOMIC_POSITIONS (crystal)
Gd       0.311868727   0.251815924   0.700813299
Gd       0.812923563   0.252229385   0.701983842
Gd       0.142552142   0.582300559   0.207216116
Gd       0.642083784   0.582197497   0.207688171
H        0.310946433   0.251689457   1.058837330
H        0.808762398   0.247806719   1.059746813
H        0.975787005   0.915887841   0.494656602
H        0.476778879   0.915959272   0.485876575
H        0.306421877   1.246306842   0.345924635
H        0.809575192   0.250106504   0.346556616

     Writing output data file 2309.save
     NEW-OLD atomic charge density approx. for the potential

[...]

     Threshold (ethr) on eigenvalues was too large:
     Diagonalizing with lowered threshold

     Davidson diagonalization with overlap
     ethr =  1.26E-08,  avg # of iterations =  3.0

[...]

     bfgs converged in  36 scf cycles and  35 bfgs steps
     (criteria: energy <  1.0E-04 Ry, force <  1.0E-03Ry/Bohr, cell <  5.0E-01kbar)

     End of BFGS Geometry Optimization

     Final enthalpy =   -2245.7349814242 Ry
Begin final coordinates
     new unit-cell volume =    880.86361 a.u.^3 (   130.53052 Ang^3 )
     density =      8.07873 g/cm^3

CELL_PARAMETERS (angstrom)
   7.227900000   0.000000000   0.000000000
  -1.807000000   3.129800000   0.000000000
   0.000000000   0.000000000   5.770100000

ATOMIC_POSITIONS (crystal)
Gd       0.311868727   0.251815924   0.700813299
Gd       0.812923563   0.252229385   0.701983842
Gd       0.142552142   0.582300559   0.207216116
Gd       0.642083784   0.582197497   0.207688171
H        0.310946433   0.251689457   1.058837330
H        0.808762398   0.247806719   1.059746813
H        0.975787005   0.915887841   0.494656602
H        0.476778879   0.915959272   0.485876575
H        0.306421877   1.246306842   0.345924635
H        0.809575192   0.250106504   0.346556616
End final coordinates

     A final scf calculation at the relaxed structure.
     The G-vectors are recalculated for the final unit cell
     Results may differ from those at the preceding step.

     bravais-lattice index     =            0
     lattice parameter (alat)  =      13.6588  a.u.
     unit-cell volume          =     880.8636 (a.u.)^3
     number of atoms/cell      =           10
     number of atomic types    =            2
     number of electrons       =        50.00
     number of Kohn-Sham states=           60
     kinetic-energy cutoff     =      50.0000  Ry
     charge density cutoff     =     200.0000  Ry
     convergence threshold     =      1.0E-08
     mixing beta               =       0.7000
     number of iterations used =            8  plain     mixing
     Exchange-correlation      =  SLA  PW   PBX  PBC ( 1  4  3  4 0 0)
     Non magnetic calculation with spin-orbit

     celldm(1)=  13.658752  celldm(2)=   0.000000  celldm(3)=   0.000000
     celldm(4)=   0.000000  celldm(5)=   0.000000  celldm(6)=   0.000000

     crystal axes: (cart. coord. in units of alat)
               a(1) = (   1.000000   0.000000   0.000000 )
               a(2) = (  -0.250003   0.433017   0.000000 )
               a(3) = (   0.000000   0.000000   0.798309 )

     reciprocal axes: (cart. coord. in units 2 pi/alat)
               b(1) = (  1.000000  0.577353  0.000000 )
               b(2) = (  0.000000  2.309381  0.000000 )
               b(3) = (  0.000000  0.000000  1.252647 )

     PseudoPot. # 1 for Gd read from file:
     /home/shaharpit/MeamGdH/dft/qe_potentials/Gd.rel-pbe-spdn-kjpaw_psl.1.0.0.UPF
     MD5 check sum: cf50ec46d1536b4a0251694df1946a53
     Pseudo is Projector augmented-wave + core cor, Zval = 11.0
     Generated using "atomic" code by A. Dal Corso  v.6.2.2
     Shape of augmentation charge: PSQ
     Using radial grid of 1263 points, 10 beta functions with:
                l(1) =   0
                l(2) =   0
                l(3) =   1
                l(4) =   1
                l(5) =   1
                l(6) =   1
                l(7) =   2
                l(8) =   2
                l(9) =   2
               l(10) =   2
     Q(r) pseudized with 0 coefficients

     PseudoPot. # 2 for  H read from file:
     /home/shaharpit/MeamGdH/dft/qe_potentials/H.pbe-kjpaw_psl.0.1.UPF
     MD5 check sum: fbb168fef676c0aaadbafd73f5b1efa8
     Pseudo is Projector augmented-wave, Zval =  1.0
     Generated using "atomic" code by A. Dal Corso  v.5.0.2 svn rev. 9415
     Shape of augmentation charge: PSQ
     Using radial grid of  929 points,  2 beta functions with:
                l(1) =   0
                l(2) =   0
     Q(r) pseudized with 0 coefficients

     atomic species   valence    mass     pseudopotential
        Gd            11.00   157.25000     Gd( 1.00)
        H              1.00     1.00794      H( 1.00)

     No symmetry found

   Cartesian axes

     site n.     atom                  positions (alat units)
         1           Gd  tau(   1) = (   0.2489139   0.1090405   0.5594658  )
         2           Gd  tau(   2) = (   0.7498653   0.1092195   0.5604002  )
         3           Gd  tau(   3) = (  -0.0030250   0.2521458   0.1654226  )
         4           Gd  tau(   4) = (   0.4965324   0.2521011   0.1657994  )
         5           H   tau(   5) = (   0.2480232   0.1089857   0.8452797  )
         6           H   tau(   6) = (   0.7468099   0.1073044   0.8460058  )
         7           H   tau(   7) = (   0.7468119   0.3965946   0.3948890  )
         8           H   tau(   8) = (   0.2477859   0.3966255   0.3878798  )
         9           H   tau(   9) = (  -0.0051591   0.5396714   0.2761549  )
        10           H   tau(  10) = (   0.7470477   0.1083002   0.2766594  )

     number of k points=    36  gaussian smearing, width (Ry)=  0.0100
                       cart. coord. in units 2pi/alat
        k(    1) = (   0.0000000   0.0000000   0.0000000), wk =   0.0156250
        k(    2) = (   0.0000000   0.0000000   0.3131618), wk =   0.0312500
        k(    3) = (   0.0000000   0.0000000  -0.6263236), wk =   0.0156250
        k(    4) = (   0.0000000   0.5773452   0.0000000), wk =   0.0312500
        k(    5) = (   0.0000000   0.5773452   0.3131618), wk =   0.0312500
        k(    6) = (   0.0000000   0.5773452  -0.6263236), wk =   0.0312500
        k(    7) = (   0.0000000  -1.1546904   0.0000000), wk =   0.0156250
        k(    8) = (   0.0000000  -1.1546904   0.3131618), wk =   0.0312500
        k(    9) = (   0.0000000  -1.1546904  -0.6263236), wk =   0.0156250
        k(   10) = (   0.2500000   0.1443383   0.0000000), wk =   0.0312500
        k(   11) = (   0.2500000   0.1443383   0.3131618), wk =   0.0312500
        k(   12) = (   0.2500000   0.1443383  -0.6263236), wk =   0.0312500
        k(   13) = (   0.2500000   0.7216835   0.0000000), wk =   0.0312500
        k(   14) = (   0.2500000   0.7216835   0.3131618), wk =   0.0312500
        k(   15) = (   0.2500000   0.7216835  -0.6263236), wk =   0.0312500
        k(   16) = (   0.2500000  -1.0103521   0.0000000), wk =   0.0312500
        k(   17) = (   0.2500000  -1.0103521   0.3131618), wk =   0.0312500
        k(   18) = (   0.2500000  -1.0103521  -0.6263236), wk =   0.0312500
        k(   19) = (   0.2500000  -0.4330069   0.0000000), wk =   0.0312500
        k(   20) = (   0.2500000  -0.4330069   0.3131618), wk =   0.0312500
        k(   21) = (   0.2500000  -0.4330069  -0.6263236), wk =   0.0312500
        k(   22) = (  -0.5000000  -0.2886766   0.0000000), wk =   0.0156250
        k(   23) = (  -0.5000000  -0.2886766   0.3131618), wk =   0.0312500
        k(   24) = (  -0.5000000  -0.2886766  -0.6263236), wk =   0.0156250
        k(   25) = (  -0.5000000   0.2886686   0.0000000), wk =   0.0312500
        k(   26) = (  -0.5000000   0.2886686   0.3131618), wk =   0.0312500
        k(   27) = (  -0.5000000   0.2886686  -0.6263236), wk =   0.0312500
        k(   28) = (  -0.5000000  -1.4433670   0.0000000), wk =   0.0156250
        k(   29) = (  -0.5000000  -1.4433670   0.3131618), wk =   0.0312500
        k(   30) = (  -0.5000000  -1.4433670  -0.6263236), wk =   0.0156250
        k(   31) = (   0.0000000  -0.5773452   0.3131618), wk =   0.0312500
        k(   32) = (  -0.2500000  -0.1443383   0.3131618), wk =   0.0312500
        k(   33) = (  -0.2500000  -0.7216835   0.3131618), wk =   0.0312500
        k(   34) = (  -0.2500000   1.0103521   0.3131618), wk =   0.0312500
        k(   35) = (  -0.2500000   0.4330069   0.3131618), wk =   0.0312500
        k(   36) = (   0.5000000  -0.2886686   0.3131618), wk =   0.0312500

     Initial potential from superposition of free atoms

     starting charge   49.92376, renormalised to   50.00000
     Starting wfc are  116 randomized atomic wfcs
     Checking if some PAW data can be deallocated...

     Writing output data file 2309.save

     Self-consistent Calculation

[...]

     total energy              =   -2245.73498103 Ry
     Harris-Foulkes estimate   =   -2245.73497868 Ry
     estimated scf accuracy    <       0.00000015 Ry

     iteration # 11     ecut=    50.00 Ry     beta=0.70
     Davidson diagonalization with overlap
     ethr =  3.10E-10,  avg # of iterations =  2.4

     End of self-consistent calculation

[...]

          k =-0.2500 0.4330 0.3132 (  5259 PWs)   bands (ev):

[...]

          k = 0.5000-0.2887 0.3132 (  5250 PWs)   bands (ev):

   -32.9993 -32.9993 -32.9735 -32.9735 -32.5201 -32.5201 -32.4966 -32.4966
   -13.8803 -13.8418 -13.7876 -13.7849 -13.3964 -13.3867 -13.3125 -13.3067
    -9.8933  -9.7477  -9.6878  -9.6723  -9.6029  -9.5370  -9.4812  -9.4771
    -9.2664  -9.1837  -9.1204  -9.0784  -9.0695  -9.0362  -8.9193  -8.8970
     3.9724   4.0052   4.8667   5.0691   6.1036   6.1093   6.1970   6.2245
     7.7411   7.8000   8.2502   8.3343  10.0994  10.1121  10.1500  10.1746
    10.8250  10.9369  11.1099  11.1289  11.8785  11.9552  12.3944  12.4009
    12.5332  12.5927  12.7431  12.7522

     the Fermi energy is    11.1439 ev

!    total energy              =   -2245.73498142 Ry
     Harris-Foulkes estimate   =   -2245.73498107 Ry
     estimated scf accuracy    <          9.8E-09 Ry

     total all-electron energy =    -90250.078367 Ry

     The total energy is the sum of the following terms:

     one-electron contribution =     -36.28538465 Ry
     hartree contribution      =      40.80700303 Ry
     xc contribution           =    -256.11066254 Ry
     ewald contribution        =    -246.07769093 Ry
     one-center paw contrib.   =   -1748.06523788 Ry
     smearing contrib. (-TS)   =      -0.00300845 Ry

     convergence has been achieved in  11 iterations

     Forces acting on atoms (cartesian axes, Ry/au):

     atom    1 type  1   force =    -0.00008907   -0.00027324    0.00099964
     atom    2 type  1   force =    -0.00022524    0.00020346   -0.00063453
     atom    3 type  1   force =    -0.00023755    0.00021334   -0.00034026
     atom    4 type  1   force =     0.00073968    0.00016511    0.00019726
     atom    5 type  2   force =    -0.00009074   -0.00033435   -0.00018136
     atom    6 type  2   force =    -0.00033759    0.00010910   -0.00026154
     atom    7 type  2   force =     0.00030033    0.00010255   -0.00045047
     atom    8 type  2   force =    -0.00006666    0.00013994    0.00044997
     atom    9 type  2   force =     0.00017618   -0.00004242   -0.00023223
     atom   10 type  2   force =    -0.00016935   -0.00028349    0.00045352

     Total force =     0.001920     Total SCF correction =     0.000442
     SCF correction compared to forces is large: reduce conv_thr to get better values

     Computing stress (Cartesian axis) and pressure

     Message from routine stres:
     noncollinear stress + GGA not implemented

     Writing output data file 2309.save

     General routines

     Parallel routines

   This run was terminated on:  17:38:52  13Oct2022

   JOB DONE.
Removing 2309 from /home/shaharpit/tmp