     Program PWSCF v.6.1 (svn rev. 13369) starts on 13Oct2022 at 17: 4:21

     Current dimensions of program PWSCF are:
     Max number of different atomic species (ntypx) = 10
     Max number of k-points (npk) =  40000
     Max angular momentum in pseudopotentials (lmaxx) =  3
               file Gd.rel-pbe-spdn-kjpaw_psl.1.0.0.UPF: wavefunction(s)  5P 5P renormalized
               file H.pbe-kjpaw_psl.0.1.UPF: wavefunction(s)  1S renormalized

     Subspace diagonalization in iterative solution of the eigenvalue problem:
     a serial algorithm will be used

     bravais-lattice index     =            0
     lattice parameter (alat)  =      13.6588  a.u.
     unit-cell volume          =     880.8636 (a.u.)^3
     number of atoms/cell      =            8
     number of atomic types    =            2
     number of electrons       =        48.00
     number of Kohn-Sham states=           58
     kinetic-energy cutoff     =      50.0000  Ry
     charge density cutoff     =     200.0000  Ry
     convergence threshold     =      1.0E-06
     mixing beta               =       0.7000
     number of iterations used =            8  plain     mixing
     Exchange-correlation      =  SLA  PW   PBX  PBC ( 1  4  3  4 0 0)
     nstep                     =          150

     Non magnetic calculation with spin-orbit

     celldm(1)=  13.658752  celldm(2)=   0.000000  celldm(3)=   0.000000
     celldm(4)=   0.000000  celldm(5)=   0.000000  celldm(6)=   0.000000

     crystal axes: (cart. coord. in units of alat)
               a(1) = (   1.000000   0.000000   0.000000 )
               a(2) = (  -0.250003   0.433017   0.000000 )
               a(3) = (   0.000000   0.000000   0.798309 )

     reciprocal axes: (cart. coord. in units 2 pi/alat)
               b(1) = (  1.000000  0.577353  0.000000 )
               b(2) = (  0.000000  2.309381  0.000000 )
               b(3) = (  0.000000  0.000000  1.252647 )

     PseudoPot. # 1 for Gd read from file:
     /home/shaharpit/MeamGdH/dft/qe_potentials/Gd.rel-pbe-spdn-kjpaw_psl.1.0.0.UPF
     MD5 check sum: cf50ec46d1536b4a0251694df1946a53
     Pseudo is Projector augmented-wave + core cor, Zval = 11.0
     Generated using "atomic" code by A. Dal Corso  v.6.2.2
     Shape of augmentation charge: PSQ
     Using radial grid of 1263 points, 10 beta functions with:
                l(1) =   0
                l(2) =   0
                l(3) =   1
                l(4) =   1
                l(5) =   1
                l(6) =   1
                l(7) =   2
                l(8) =   2
                l(9) =   2
               l(10) =   2
     Q(r) pseudized with 0 coefficients

     PseudoPot. # 2 for  H read from file:
     /home/shaharpit/MeamGdH/dft/qe_potentials/H.pbe-kjpaw_psl.0.1.UPF
     MD5 check sum: fbb168fef676c0aaadbafd73f5b1efa8
     Pseudo is Projector augmented-wave, Zval =  1.0
     Generated using "atomic" code by A. Dal Corso  v.5.0.2 svn rev. 9415
     Shape of augmentation charge: PSQ
     Using radial grid of  929 points,  2 beta functions with:
                l(1) =   0
                l(2) =   0
     Q(r) pseudized with 0 coefficients

     atomic species   valence    mass     pseudopotential
        Gd            11.00   157.25000     Gd( 1.00)
        H              1.00     1.00794      H( 1.00)

     No symmetry found

   Cartesian axes

     site n.     atom                  positions (alat units)
         1           Gd  tau(   1) = (   0.2499738   0.1443244   0.5987320  )
         2           Gd  tau(   2) = (   0.7499738   0.1443244   0.5987320  )
         3           Gd  tau(   3) = (   0.0000227   0.2886921   0.1995773  )
         4           Gd  tau(   4) = (   0.5000227   0.2886921   0.1995773  )
         5           H   tau(   5) = (   0.2603489   0.1351878   0.7734021  )
         6           H   tau(   6) = (   0.7141741   0.1153989   0.7679736  )
         7           H   tau(   7) = (   0.7240968   0.3952575   0.4070579  )
         8           H   tau(   8) = (   0.2676216   0.4208487   0.3987555  )

     number of k points=    36  gaussian smearing, width (Ry)=  0.0100
                       cart. coord. in units 2pi/alat
        k(    1) = (   0.0000000   0.0000000   0.0000000), wk =   0.0156250
        k(    2) = (   0.0000000   0.0000000   0.3131618), wk =   0.0312500
        k(    3) = (   0.0000000   0.0000000  -0.6263236), wk =   0.0156250
        k(    4) = (   0.0000000   0.5773452   0.0000000), wk =   0.0312500
        k(    5) = (   0.0000000   0.5773452   0.3131618), wk =   0.0312500
        k(    6) = (   0.0000000   0.5773452  -0.6263236), wk =   0.0312500
        k(    7) = (   0.0000000  -1.1546904   0.0000000), wk =   0.0156250
        k(    8) = (   0.0000000  -1.1546904   0.3131618), wk =   0.0312500
        k(    9) = (   0.0000000  -1.1546904  -0.6263236), wk =   0.0156250
        k(   10) = (   0.2500000   0.1443383   0.0000000), wk =   0.0312500
        k(   11) = (   0.2500000   0.1443383   0.3131618), wk =   0.0312500
        k(   12) = (   0.2500000   0.1443383  -0.6263236), wk =   0.0312500
        k(   13) = (   0.2500000   0.7216835   0.0000000), wk =   0.0312500
        k(   14) = (   0.2500000   0.7216835   0.3131618), wk =   0.0312500
        k(   15) = (   0.2500000   0.7216835  -0.6263236), wk =   0.0312500
        k(   16) = (   0.2500000  -1.0103521   0.0000000), wk =   0.0312500
        k(   17) = (   0.2500000  -1.0103521   0.3131618), wk =   0.0312500
        k(   18) = (   0.2500000  -1.0103521  -0.6263236), wk =   0.0312500
        k(   19) = (   0.2500000  -0.4330069   0.0000000), wk =   0.0312500
        k(   20) = (   0.2500000  -0.4330069   0.3131618), wk =   0.0312500
        k(   21) = (   0.2500000  -0.4330069  -0.6263236), wk =   0.0312500
        k(   22) = (  -0.5000000  -0.2886766   0.0000000), wk =   0.0156250
        k(   23) = (  -0.5000000  -0.2886766   0.3131618), wk =   0.0312500
        k(   24) = (  -0.5000000  -0.2886766  -0.6263236), wk =   0.0156250
        k(   25) = (  -0.5000000   0.2886686   0.0000000), wk =   0.0312500
        k(   26) = (  -0.5000000   0.2886686   0.3131618), wk =   0.0312500
        k(   27) = (  -0.5000000   0.2886686  -0.6263236), wk =   0.0312500
        k(   28) = (  -0.5000000  -1.4433670   0.0000000), wk =   0.0156250
        k(   29) = (  -0.5000000  -1.4433670   0.3131618), wk =   0.0312500
        k(   30) = (  -0.5000000  -1.4433670  -0.6263236), wk =   0.0156250
        k(   31) = (   0.0000000  -0.5773452   0.3131618), wk =   0.0312500
        k(   32) = (  -0.2500000  -0.1443383   0.3131618), wk =   0.0312500
        k(   33) = (  -0.2500000  -0.7216835   0.3131618), wk =   0.0312500
        k(   34) = (  -0.2500000   1.0103521   0.3131618), wk =   0.0312500
        k(   35) = (  -0.2500000   0.4330069   0.3131618), wk =   0.0312500
        k(   36) = (   0.5000000  -0.2886686   0.3131618), wk =   0.0312500

     Initial potential from superposition of free atoms

     starting charge   47.92377, renormalised to   48.00000
     Starting wfc are  112 randomized atomic wfcs
     Checking if some PAW data can be deallocated...

     Self-consistent Calculation

     iteration #  1     ecut=    50.00 Ry     beta=0.70
     Davidson diagonalization with overlap
     ethr =  1.00E-02,  avg # of iterations =  2.0

     total energy              =   -2242.24356044 Ry
     Harris-Foulkes estimate   =   -2242.71863539 Ry
     estimated scf accuracy    <       0.69349226 Ry

[...]

     iteration #  7     ecut=    50.00 Ry     beta=0.70
     Davidson diagonalization with overlap
     c_bands:  2 eigenvalues not converged
     ethr =  3.01E-06,  avg # of iterations =  6.9

[...]

     End of self-consistent calculation

          k = 0.0000 0.0000 0.0000 (  5289 PWs)   bands (ev):

   -33.5194 -33.5194 -33.2824 -33.2824 -33.0322 -33.0322 -32.8687 -32.8687
   -14.3217 -14.3217 -14.1618 -14.1618 -14.1146 -14.1146 -13.8514 -13.8514
   -10.4583 -10.4583 -10.3255 -10.3255 -10.1146 -10.1146  -9.8379  -9.8379
    -9.6035  -9.6035  -9.5722  -9.5722  -9.2990  -9.2990  -8.9175  -8.9175
     3.9824   3.9824   5.8990   5.8990   6.8201   6.8201   7.4447   7.4447
     9.1231   9.1231   9.6450   9.6450   9.9128   9.9128  10.9518  10.9518
    11.4946  11.4946  11.8919  11.8919  12.1768  12.1768  12.2942  12.2942
    12.4591  12.4591

[...]

          k =-0.5000-0.2887 0.0000 (  5254 PWs)   bands (ev):

[...]

     the Fermi energy is    10.9648 ev

!    total energy              =   -2242.51465421 Ry
     Harris-Foulkes estimate   =   -2242.51465426 Ry
     estimated scf accuracy    <       0.00000005 Ry

     total all-electron energy =    -90246.858048 Ry

     The total energy is the sum of the following terms:

     one-electron contribution =     -44.28734037 Ry
     hartree contribution      =      43.20586772 Ry
     xc contribution           =    -254.89899788 Ry
     ewald contribution        =    -238.45252823 Ry
     one-center paw contrib.   =   -1748.07852063 Ry
     smearing contrib. (-TS)   =      -0.00313483 Ry

     convergence has been achieved in  11 iterations

     Forces acting on atoms (cartesian axes, Ry/au):

     atom    1 type  1   force =    -0.04652721    0.02990075   -0.76802650
     atom    2 type  1   force =     0.16116172    0.10730402   -0.74482324
     atom    3 type  1   force =     0.00037515    0.00109118   -0.00601751
     atom    4 type  1   force =    -0.00750459   -0.01218980   -0.02610164
     atom    5 type  2   force =     0.04227973   -0.03533154    0.78969806
     atom    6 type  2   force =    -0.15116649   -0.11652460    0.76607403
     atom    7 type  2   force =     0.00477970    0.01723353   -0.00671259
     atom    8 type  2   force =    -0.00339802    0.00851646   -0.00409061

     Total force =     1.560935     Total SCF correction =     0.000634

     Computing stress (Cartesian axis) and pressure

     Message from routine stres:
     noncollinear stress + GGA not implemented

     BFGS Geometry Optimization

     number of scf cycles    =   1
     number of bfgs steps    =   0

     enthalpy new            =   -2242.5146542142 Ry

     new trust radius        =       0.5000000000 bohr
     new conv_thr            =       0.0000010000 Ry

     new unit-cell volume =    880.86361 a.u.^3 (   130.53052 Ang^3 )
     density =      8.05309 g/cm^3

CELL_PARAMETERS (angstrom)
   7.227900000   0.000000000   0.000000000
  -1.807000000   3.129800000   0.000000000
   0.000000000   0.000000000   5.770100000

ATOMIC_POSITIONS (crystal)
Gd       0.331946757   0.336493163   0.705511436
Gd       0.843617400   0.344759217   0.706855504
Gd       0.166746481   0.666816530   0.249651431
Gd       0.666027520   0.665398227   0.248488041
H        0.339411835   0.308426872   1.014543907
H        0.770698632   0.254056098   1.006375466
H        0.952981134   0.914640404   0.509511168
H        0.510670242   0.972809490   0.499263048

     Writing output data file 2308.save
     NEW-OLD atomic charge density approx. for the potential

[...]

     enthalpy old            =   -2242.5146542142 Ry
     enthalpy new            =   -2243.2216863892 Ry

     CASE: enthalpy_new < enthalpy_old

[...]

     iteration #  1     ecut=    50.00 Ry     beta=0.70
     Davidson diagonalization with overlap
     c_bands:  2 eigenvalues not converged
     c_bands:  1 eigenvalues not converged
     ethr =  1.00E-06,  avg # of iterations = 11.8

[...]

     Threshold (ethr) on eigenvalues was too large:
     Diagonalizing with lowered threshold

     Davidson diagonalization with overlap
     ethr =  9.54E-08,  avg # of iterations =  1.8

[...]

     Total force =     0.003292     Total SCF correction =     0.000428
     SCF correction compared to forces is large: reduce conv_thr to get better values

[...]

     Total force =     0.002451     Total SCF correction =     0.000254
     SCF correction compared to forces is large: reduce conv_thr to get better values

[...]

     number of scf cycles    =  25
     number of bfgs steps    =  24

     enthalpy old            =   -2243.3751639622 Ry
     enthalpy new            =   -2243.3751931043 Ry

     CASE: enthalpy_new < enthalpy_old

     new trust radius        =       0.0073420636 bohr
     new conv_thr            =       0.0000000100 Ry

     new unit-cell volume =    880.86361 a.u.^3 (   130.53052 Ang^3 )
     density =      8.05309 g/cm^3

[...]

ATOMIC_POSITIONS (crystal)
Gd       0.325257523   0.310564071   0.714538010
Gd       0.824010451   0.308649502   0.713915558
Gd       0.155490269   0.641028459   0.213509206
Gd       0.655372249   0.640570226   0.212560180
H        0.322125287   0.306825050   1.104128674
H        0.822339764   0.308080802   1.103169550
H        0.986888760   0.972021022   0.438527491
H        0.490615698   0.975660868   0.439851332

     Writing output data file 2308.save
     NEW-OLD atomic charge density approx. for the potential

[...]

     Threshold (ethr) on eigenvalues was too large:
     Diagonalizing with lowered threshold

     Davidson diagonalization with overlap
     ethr =  5.16E-08,  avg # of iterations =  2.0

[...]

     bfgs converged in  26 scf cycles and  25 bfgs steps
     (criteria: energy <  1.0E-04 Ry, force <  1.0E-03Ry/Bohr, cell <  5.0E-01kbar)

     End of BFGS Geometry Optimization

     Final enthalpy =   -2243.3752058516 Ry
Begin final coordinates
     new unit-cell volume =    880.86361 a.u.^3 (   130.53052 Ang^3 )
     density =      8.05309 g/cm^3

CELL_PARAMETERS (angstrom)
   7.227900000   0.000000000   0.000000000
  -1.807000000   3.129800000   0.000000000
   0.000000000   0.000000000   5.770100000

ATOMIC_POSITIONS (crystal)
Gd       0.325257523   0.310564071   0.714538010
Gd       0.824010451   0.308649502   0.713915558
Gd       0.155490269   0.641028459   0.213509206
Gd       0.655372249   0.640570226   0.212560180
H        0.322125287   0.306825050   1.104128674
H        0.822339764   0.308080802   1.103169550
H        0.986888760   0.972021022   0.438527491
H        0.490615698   0.975660868   0.439851332
End final coordinates

     A final scf calculation at the relaxed structure.
     The G-vectors are recalculated for the final unit cell
     Results may differ from those at the preceding step.

     bravais-lattice index     =            0
     lattice parameter (alat)  =      13.6588  a.u.
     unit-cell volume          =     880.8636 (a.u.)^3
     number of atoms/cell      =            8
     number of atomic types    =            2
     number of electrons       =        48.00
     number of Kohn-Sham states=           58
     kinetic-energy cutoff     =      50.0000  Ry
     charge density cutoff     =     200.0000  Ry
     convergence threshold     =      1.0E-08
     mixing beta               =       0.7000
     number of iterations used =            8  plain     mixing
     Exchange-correlation      =  SLA  PW   PBX  PBC ( 1  4  3  4 0 0)
     Non magnetic calculation with spin-orbit

     celldm(1)=  13.658752  celldm(2)=   0.000000  celldm(3)=   0.000000
     celldm(4)=   0.000000  celldm(5)=   0.000000  celldm(6)=   0.000000

     crystal axes: (cart. coord. in units of alat)
               a(1) = (   1.000000   0.000000   0.000000 )
               a(2) = (  -0.250003   0.433017   0.000000 )
               a(3) = (   0.000000   0.000000   0.798309 )

     reciprocal axes: (cart. coord. in units 2 pi/alat)
               b(1) = (  1.000000  0.577353  0.000000 )
               b(2) = (  0.000000  2.309381  0.000000 )
               b(3) = (  0.000000  0.000000  1.252647 )

     PseudoPot. # 1 for Gd read from file:
     /home/shaharpit/MeamGdH/dft/qe_potentials/Gd.rel-pbe-spdn-kjpaw_psl.1.0.0.UPF
     MD5 check sum: cf50ec46d1536b4a0251694df1946a53
     Pseudo is Projector augmented-wave + core cor, Zval = 11.0
     Generated using "atomic" code by A. Dal Corso  v.6.2.2
     Shape of augmentation charge: PSQ
     Using radial grid of 1263 points, 10 beta functions with:
                l(1) =   0
                l(2) =   0
                l(3) =   1
                l(4) =   1
                l(5) =   1
                l(6) =   1
                l(7) =   2
                l(8) =   2
                l(9) =   2
               l(10) =   2
     Q(r) pseudized with 0 coefficients

     PseudoPot. # 2 for  H read from file:
     /home/shaharpit/MeamGdH/dft/qe_potentials/H.pbe-kjpaw_psl.0.1.UPF
     MD5 check sum: fbb168fef676c0aaadbafd73f5b1efa8
     Pseudo is Projector augmented-wave, Zval =  1.0
     Generated using "atomic" code by A. Dal Corso  v.5.0.2 svn rev. 9415
     Shape of augmentation charge: PSQ
     Using radial grid of  929 points,  2 beta functions with:
                l(1) =   0
                l(2) =   0
     Q(r) pseudized with 0 coefficients

     atomic species   valence    mass     pseudopotential
        Gd            11.00   157.25000     Gd( 1.00)
        H              1.00     1.00794      H( 1.00)

     No symmetry found

   Cartesian axes

     site n.     atom                  positions (alat units)
         1           Gd  tau(   1) = (   0.2476154   0.1344794   0.5704224  )
         2           Gd  tau(   2) = (   0.7468470   0.1336503   0.5699254  )
         3           Gd  tau(   3) = (  -0.0047691   0.2775759   0.1704464  )
         4           Gd  tau(   4) = (   0.4952275   0.2773775   0.1696888  )
         5           H   tau(   5) = (   0.2454180   0.1328603   0.8814362  )
         6           H   tau(   6) = (   0.7453185   0.1334041   0.8806705  )
         7           H   tau(   7) = (   0.7438801   0.4209011   0.3500806  )
         8           H   tau(   8) = (   0.2466971   0.4224773   0.3511374  )

     number of k points=    36  gaussian smearing, width (Ry)=  0.0100
                       cart. coord. in units 2pi/alat
        k(    1) = (   0.0000000   0.0000000   0.0000000), wk =   0.0156250
        k(    2) = (   0.0000000   0.0000000   0.3131618), wk =   0.0312500
        k(    3) = (   0.0000000   0.0000000  -0.6263236), wk =   0.0156250
        k(    4) = (   0.0000000   0.5773452   0.0000000), wk =   0.0312500
        k(    5) = (   0.0000000   0.5773452   0.3131618), wk =   0.0312500
        k(    6) = (   0.0000000   0.5773452  -0.6263236), wk =   0.0312500
        k(    7) = (   0.0000000  -1.1546904   0.0000000), wk =   0.0156250
        k(    8) = (   0.0000000  -1.1546904   0.3131618), wk =   0.0312500
        k(    9) = (   0.0000000  -1.1546904  -0.6263236), wk =   0.0156250
        k(   10) = (   0.2500000   0.1443383   0.0000000), wk =   0.0312500
        k(   11) = (   0.2500000   0.1443383   0.3131618), wk =   0.0312500
        k(   12) = (   0.2500000   0.1443383  -0.6263236), wk =   0.0312500
        k(   13) = (   0.2500000   0.7216835   0.0000000), wk =   0.0312500
        k(   14) = (   0.2500000   0.7216835   0.3131618), wk =   0.0312500
        k(   15) = (   0.2500000   0.7216835  -0.6263236), wk =   0.0312500
        k(   16) = (   0.2500000  -1.0103521   0.0000000), wk =   0.0312500
        k(   17) = (   0.2500000  -1.0103521   0.3131618), wk =   0.0312500
        k(   18) = (   0.2500000  -1.0103521  -0.6263236), wk =   0.0312500
        k(   19) = (   0.2500000  -0.4330069   0.0000000), wk =   0.0312500
        k(   20) = (   0.2500000  -0.4330069   0.3131618), wk =   0.0312500
        k(   21) = (   0.2500000  -0.4330069  -0.6263236), wk =   0.0312500
        k(   22) = (  -0.5000000  -0.2886766   0.0000000), wk =   0.0156250
        k(   23) = (  -0.5000000  -0.2886766   0.3131618), wk =   0.0312500
        k(   24) = (  -0.5000000  -0.2886766  -0.6263236), wk =   0.0156250
        k(   25) = (  -0.5000000   0.2886686   0.0000000), wk =   0.0312500
        k(   26) = (  -0.5000000   0.2886686   0.3131618), wk =   0.0312500
        k(   27) = (  -0.5000000   0.2886686  -0.6263236), wk =   0.0312500
        k(   28) = (  -0.5000000  -1.4433670   0.0000000), wk =   0.0156250
        k(   29) = (  -0.5000000  -1.4433670   0.3131618), wk =   0.0312500
        k(   30) = (  -0.5000000  -1.4433670  -0.6263236), wk =   0.0156250
        k(   31) = (   0.0000000  -0.5773452   0.3131618), wk =   0.0312500
        k(   32) = (  -0.2500000  -0.1443383   0.3131618), wk =   0.0312500
        k(   33) = (  -0.2500000  -0.7216835   0.3131618), wk =   0.0312500
        k(   34) = (  -0.2500000   1.0103521   0.3131618), wk =   0.0312500
        k(   35) = (  -0.2500000   0.4330069   0.3131618), wk =   0.0312500
        k(   36) = (   0.5000000  -0.2886686   0.3131618), wk =   0.0312500

     Initial potential from superposition of free atoms

     starting charge   47.92377, renormalised to   48.00000
     Starting wfc are  112 randomized atomic wfcs
     Checking if some PAW data can be deallocated...

     Writing output data file 2308.save

     Self-consistent Calculation

[...]

     total energy              =   -2243.37520938 Ry
     Harris-Foulkes estimate   =   -2243.37520970 Ry
     estimated scf accuracy    <       0.00000027 Ry

     iteration # 11     ecut=    50.00 Ry     beta=0.70
     Davidson diagonalization with overlap
     ethr =  5.66E-10,  avg # of iterations =  3.0

     End of self-consistent calculation

[...]

          k =-0.2500 0.4330 0.3132 (  5259 PWs)   bands (ev):

[...]

          k = 0.5000-0.2887 0.3132 (  5250 PWs)   bands (ev):

   -33.1460 -33.1460 -33.1223 -33.1223 -32.8948 -32.8948 -32.8692 -32.8692
   -13.9626 -13.9582 -13.9123 -13.9053 -13.7687 -13.7464 -13.6602 -13.6576
    -9.8961  -9.8295  -9.8155  -9.8082  -9.7801  -9.6844  -9.6123  -9.5595
    -9.5353  -9.5296  -9.4493  -9.4129  -9.3865  -9.3423  -9.2353  -9.2304
     4.9414   4.9524   5.8349   5.8803   6.1194   6.1343   6.2114   6.2632
     9.4529   9.4996   9.9295   9.9482  10.3152  10.4005  10.8353  10.8655
    11.2030  11.2556  11.5812  11.6152  11.6809  11.7531  12.3588  12.3631
    12.5233  12.5506

     the Fermi energy is    11.0945 ev

!    total energy              =   -2243.37520585 Ry
     Harris-Foulkes estimate   =   -2243.37520943 Ry
     estimated scf accuracy    <          4.6E-09 Ry

     total all-electron energy =    -90247.718600 Ry

     The total energy is the sum of the following terms:

     one-electron contribution =     -39.91054838 Ry
     hartree contribution      =      40.90415805 Ry
     xc contribution           =    -254.44991031 Ry
     ewald contribution        =    -241.85841825 Ry
     one-center paw contrib.   =   -1748.05827154 Ry
     smearing contrib. (-TS)   =      -0.00221542 Ry

     convergence has been achieved in  11 iterations

     Forces acting on atoms (cartesian axes, Ry/au):

     atom    1 type  1   force =    -0.00048301   -0.00038044    0.00036970
     atom    2 type  1   force =     0.00082239    0.00064798    0.00040387
     atom    3 type  1   force =     0.00018659   -0.00051297   -0.00047637
     atom    4 type  1   force =     0.00024143    0.00039563   -0.00025940
     atom    5 type  2   force =    -0.00078623    0.00015447   -0.00036163
     atom    6 type  2   force =    -0.00012073   -0.00049421    0.00008303
     atom    7 type  2   force =     0.00053443    0.00037654    0.00022181
     atom    8 type  2   force =    -0.00039487   -0.00018699    0.00001899

     Total force =     0.002071     Total SCF correction =     0.000154

     Computing stress (Cartesian axis) and pressure

     Message from routine stres:
     noncollinear stress + GGA not implemented

     Writing output data file 2308.save

     General routines

     Parallel routines

   This run was terminated on:  17:29: 9  13Oct2022

   JOB DONE.
Removing 2308 from /home/shaharpit/tmp