     Program PWSCF v.6.1 (svn rev. 13369) starts on 13Oct2022 at 17: 4:26

     Current dimensions of program PWSCF are:
     Max number of different atomic species (ntypx) = 10
     Max number of k-points (npk) =  40000
     Max angular momentum in pseudopotentials (lmaxx) =  3
               file Gd.rel-pbe-spdn-kjpaw_psl.1.0.0.UPF: wavefunction(s)  5P 5P renormalized
               file H.pbe-kjpaw_psl.0.1.UPF: wavefunction(s)  1S renormalized

     Subspace diagonalization in iterative solution of the eigenvalue problem:
     a serial algorithm will be used

     bravais-lattice index     =            0
     lattice parameter (alat)  =      13.6588  a.u.
     unit-cell volume          =     880.8636 (a.u.)^3
     number of atoms/cell      =           12
     number of atomic types    =            2
     number of electrons       =        52.00
     number of Kohn-Sham states=           62
     kinetic-energy cutoff     =      50.0000  Ry
     charge density cutoff     =     200.0000  Ry
     convergence threshold     =      1.0E-06
     mixing beta               =       0.7000
     number of iterations used =            8  plain     mixing
     Exchange-correlation      =  SLA  PW   PBX  PBC ( 1  4  3  4 0 0)
     nstep                     =          150

     Non magnetic calculation with spin-orbit

     celldm(1)=  13.658752  celldm(2)=   0.000000  celldm(3)=   0.000000
     celldm(4)=   0.000000  celldm(5)=   0.000000  celldm(6)=   0.000000

     crystal axes: (cart. coord. in units of alat)
               a(1) = (   1.000000   0.000000   0.000000 )
               a(2) = (  -0.250003   0.433017   0.000000 )
               a(3) = (   0.000000   0.000000   0.798309 )

     reciprocal axes: (cart. coord. in units 2 pi/alat)
               b(1) = (  1.000000  0.577353  0.000000 )
               b(2) = (  0.000000  2.309381  0.000000 )
               b(3) = (  0.000000  0.000000  1.252647 )

     PseudoPot. # 1 for Gd read from file:
     /home/shaharpit/MeamGdH/dft/qe_potentials/Gd.rel-pbe-spdn-kjpaw_psl.1.0.0.UPF
     MD5 check sum: cf50ec46d1536b4a0251694df1946a53
     Pseudo is Projector augmented-wave + core cor, Zval = 11.0
     Generated using "atomic" code by A. Dal Corso  v.6.2.2
     Shape of augmentation charge: PSQ
     Using radial grid of 1263 points, 10 beta functions with:
                l(1) =   0
                l(2) =   0
                l(3) =   1
                l(4) =   1
                l(5) =   1
                l(6) =   1
                l(7) =   2
                l(8) =   2
                l(9) =   2
               l(10) =   2
     Q(r) pseudized with 0 coefficients

     PseudoPot. # 2 for  H read from file:
     /home/shaharpit/MeamGdH/dft/qe_potentials/H.pbe-kjpaw_psl.0.1.UPF
     MD5 check sum: fbb168fef676c0aaadbafd73f5b1efa8
     Pseudo is Projector augmented-wave, Zval =  1.0
     Generated using "atomic" code by A. Dal Corso  v.5.0.2 svn rev. 9415
     Shape of augmentation charge: PSQ
     Using radial grid of  929 points,  2 beta functions with:
                l(1) =   0
                l(2) =   0
     Q(r) pseudized with 0 coefficients

     atomic species   valence    mass     pseudopotential
        Gd            11.00   157.25000     Gd( 1.00)
        H              1.00     1.00794      H( 1.00)

     No symmetry found

   Cartesian axes

     site n.     atom                  positions (alat units)
         1           Gd  tau(   1) = (   0.2499738   0.1443244   0.5987320  )
         2           Gd  tau(   2) = (   0.7499738   0.1443244   0.5987320  )
         3           Gd  tau(   3) = (   0.0000227   0.2886921   0.1995773  )
         4           Gd  tau(   4) = (   0.5000227   0.2886921   0.1995773  )
         5           H   tau(   5) = (   0.2603489   0.1351878   0.7734021  )
         6           H   tau(   6) = (   0.7141741   0.1153989   0.7679736  )
         7           H   tau(   7) = (   0.7240968   0.3952575   0.4070579  )
         8           H   tau(   8) = (   0.2676216   0.4208487   0.3987555  )
         9           H   tau(   9) = (  -0.0020534   0.4258284   0.2957736  )
        10           H   tau(  10) = (   0.7594248   0.0214343   0.2383752  )
        11           H   tau(  11) = (  -0.0314513   0.1687898   0.6524582  )
        12           H   tau(  12) = (   0.5425737   0.1587005   0.6760083  )

     number of k points=    36  gaussian smearing, width (Ry)=  0.0100
                       cart. coord. in units 2pi/alat
        k(    1) = (   0.0000000   0.0000000   0.0000000), wk =   0.0156250
        k(    2) = (   0.0000000   0.0000000   0.3131618), wk =   0.0312500
        k(    3) = (   0.0000000   0.0000000  -0.6263236), wk =   0.0156250
        k(    4) = (   0.0000000   0.5773452   0.0000000), wk =   0.0312500
        k(    5) = (   0.0000000   0.5773452   0.3131618), wk =   0.0312500
        k(    6) = (   0.0000000   0.5773452  -0.6263236), wk =   0.0312500
        k(    7) = (   0.0000000  -1.1546904   0.0000000), wk =   0.0156250
        k(    8) = (   0.0000000  -1.1546904   0.3131618), wk =   0.0312500
        k(    9) = (   0.0000000  -1.1546904  -0.6263236), wk =   0.0156250
        k(   10) = (   0.2500000   0.1443383   0.0000000), wk =   0.0312500
        k(   11) = (   0.2500000   0.1443383   0.3131618), wk =   0.0312500
        k(   12) = (   0.2500000   0.1443383  -0.6263236), wk =   0.0312500
        k(   13) = (   0.2500000   0.7216835   0.0000000), wk =   0.0312500
        k(   14) = (   0.2500000   0.7216835   0.3131618), wk =   0.0312500
        k(   15) = (   0.2500000   0.7216835  -0.6263236), wk =   0.0312500
        k(   16) = (   0.2500000  -1.0103521   0.0000000), wk =   0.0312500
        k(   17) = (   0.2500000  -1.0103521   0.3131618), wk =   0.0312500
        k(   18) = (   0.2500000  -1.0103521  -0.6263236), wk =   0.0312500
        k(   19) = (   0.2500000  -0.4330069   0.0000000), wk =   0.0312500
        k(   20) = (   0.2500000  -0.4330069   0.3131618), wk =   0.0312500
        k(   21) = (   0.2500000  -0.4330069  -0.6263236), wk =   0.0312500
        k(   22) = (  -0.5000000  -0.2886766   0.0000000), wk =   0.0156250
        k(   23) = (  -0.5000000  -0.2886766   0.3131618), wk =   0.0312500
        k(   24) = (  -0.5000000  -0.2886766  -0.6263236), wk =   0.0156250
        k(   25) = (  -0.5000000   0.2886686   0.0000000), wk =   0.0312500
        k(   26) = (  -0.5000000   0.2886686   0.3131618), wk =   0.0312500
        k(   27) = (  -0.5000000   0.2886686  -0.6263236), wk =   0.0312500
        k(   28) = (  -0.5000000  -1.4433670   0.0000000), wk =   0.0156250
        k(   29) = (  -0.5000000  -1.4433670   0.3131618), wk =   0.0312500
        k(   30) = (  -0.5000000  -1.4433670  -0.6263236), wk =   0.0156250
        k(   31) = (   0.0000000  -0.5773452   0.3131618), wk =   0.0312500
        k(   32) = (  -0.2500000  -0.1443383   0.3131618), wk =   0.0312500
        k(   33) = (  -0.2500000  -0.7216835   0.3131618), wk =   0.0312500
        k(   34) = (  -0.2500000   1.0103521   0.3131618), wk =   0.0312500
        k(   35) = (  -0.2500000   0.4330069   0.3131618), wk =   0.0312500
        k(   36) = (   0.5000000  -0.2886686   0.3131618), wk =   0.0312500

     Initial potential from superposition of free atoms

     starting charge   51.92374, renormalised to   52.00000
     Starting wfc are  120 randomized atomic wfcs
     Checking if some PAW data can be deallocated...

     Self-consistent Calculation

     iteration #  1     ecut=    50.00 Ry     beta=0.70
     Davidson diagonalization with overlap
     ethr =  1.00E-02,  avg # of iterations =  2.0

     total energy              =   -2245.87546282 Ry
     Harris-Foulkes estimate   =   -2246.55188912 Ry
     estimated scf accuracy    <       1.12090561 Ry

[...]

     End of self-consistent calculation

          k = 0.0000 0.0000 0.0000 (  5289 PWs)   bands (ev):

   -33.3399 -33.3399 -33.2140 -33.2140 -32.6257 -32.6257 -32.0194 -32.0194
   -14.4875 -14.4875 -14.3059 -14.3059 -13.7844 -13.7844 -13.3400 -13.3400
   -10.7288 -10.7288 -10.4968 -10.4968 -10.0732 -10.0732  -9.7803  -9.7803
    -9.5635  -9.5635  -9.2263  -9.2263  -8.8983  -8.8983  -8.4089  -8.4089
     3.5098   3.5098   5.6183   5.6183   6.0826   6.0826   6.3499   6.3499
     7.9035   7.9035   8.1262   8.1262   8.7752   8.7752   9.2213   9.2213
     9.7943   9.7943  11.1012  11.1012  11.7207  11.7207  11.8731  11.8731
    12.2834  12.2834  12.4334  12.4334  13.0661  13.0661

[...]

          k =-0.5000-0.2887 0.0000 (  5254 PWs)   bands (ev):

[...]

     the Fermi energy is    11.1516 ev

!    total energy              =   -2246.18222367 Ry
     Harris-Foulkes estimate   =   -2246.18222428 Ry
     estimated scf accuracy    <       0.00000085 Ry

     total all-electron energy =    -90250.525600 Ry

     The total energy is the sum of the following terms:

     one-electron contribution =     -41.16252606 Ry
     hartree contribution      =      45.30592982 Ry
     xc contribution           =    -258.88564149 Ry
     ewald contribution        =    -243.31098133 Ry
     one-center paw contrib.   =   -1748.12685831 Ry
     smearing contrib. (-TS)   =      -0.00214630 Ry

     convergence has been achieved in  10 iterations

     Forces acting on atoms (cartesian axes, Ry/au):

     atom    1 type  1   force =    -0.03656964    0.02795280   -0.83046700
     atom    2 type  1   force =     0.16568919    0.05578365   -0.91154250
     atom    3 type  1   force =     0.01060911   -0.80072333   -0.53166735
     atom    4 type  1   force =    -0.04167250   -0.86984324   -0.23062767
     atom    5 type  2   force =     0.04646708   -0.05390380    0.81928032
     atom    6 type  2   force =    -0.13522990   -0.12586394    0.76744476
     atom    7 type  2   force =     0.00193996    0.00868243   -0.00513281
     atom    8 type  2   force =    -0.00245910   -0.00381208   -0.00183384
     atom    9 type  2   force =    -0.01602383    0.79803613    0.53684117
     atom   10 type  2   force =     0.04835303    0.86202057    0.20767555
     atom   11 type  2   force =     0.18724113    0.05553380    0.08029331
     atom   12 type  2   force =    -0.22834452    0.04613703    0.09973607

     Total force =     2.531985     Total SCF correction =     0.003415

     Computing stress (Cartesian axis) and pressure

     Message from routine stres:
     noncollinear stress + GGA not implemented

     BFGS Geometry Optimization

     number of scf cycles    =   1
     number of bfgs steps    =   0

     enthalpy new            =   -2246.1822236705 Ry

     new trust radius        =       0.5000000000 bohr
     new conv_thr            =       0.0000010000 Ry

     new unit-cell volume =    880.86361 a.u.^3 (   130.53052 Ang^3 )
     density =      8.10438 g/cm^3

CELL_PARAMETERS (angstrom)
   7.227900000   0.000000000   0.000000000
  -1.807000000   3.129800000   0.000000000
   0.000000000   0.000000000   5.770100000

ATOMIC_POSITIONS (crystal)
Gd       0.332522494   0.335756601   0.710411875
Gd       0.840830970   0.338202484   0.706547029
Gd       0.149510816   0.596329312   0.224655569
Gd       0.646002577   0.590254785   0.239006045
H        0.338983977   0.307462724   1.007854859
H        0.772888410   0.255438586   0.998583873
H        0.952564589   0.913563046   0.509655320
H        0.510422662   0.971564979   0.499412582
H        0.260724084   1.053534526   0.396091066
H        0.792579777   0.125257728   0.308499834
H        0.074345643   0.394680527   0.821127559
H        0.626523998   0.370554702   0.851554390

     Writing output data file 2305.save
     NEW-OLD atomic charge density approx. for the potential

[...]

     iteration #  1     ecut=    50.00 Ry     beta=0.70
     Davidson diagonalization with overlap
     c_bands:  2 eigenvalues not converged
     c_bands:  1 eigenvalues not converged
     c_bands:  1 eigenvalues not converged
     ethr =  1.00E-06,  avg # of iterations = 16.2

[...]

     enthalpy old            =   -2246.1822236705 Ry
     enthalpy new            =   -2247.8155885315 Ry

     CASE: enthalpy_new < enthalpy_old

[...]

     Threshold (ethr) on eigenvalues was too large:
     Diagonalizing with lowered threshold

     Davidson diagonalization with overlap
     ethr =  4.38E-08,  avg # of iterations =  1.9

[...]

     number of scf cycles    =  31
     number of bfgs steps    =  30

     enthalpy old            =   -2248.2157989915 Ry
     enthalpy new            =   -2248.2158138957 Ry

     CASE: enthalpy_new < enthalpy_old

     new trust radius        =       0.0068892642 bohr
     new conv_thr            =       0.0000000100 Ry

     new unit-cell volume =    880.86361 a.u.^3 (   130.53052 Ang^3 )
     density =      8.10438 g/cm^3

[...]

ATOMIC_POSITIONS (crystal)
Gd       0.302944317   0.215842798   0.701260950
Gd       0.803261534   0.217432131   0.701781312
Gd       0.136138624   0.547352364   0.193827997
Gd       0.635993580   0.549195849   0.194509010
H        0.303127984   0.213591819   1.056103731
H        0.802836203   0.216523736   1.056853911
H        0.969318008   0.884750631   0.528136385
H        0.469636796   0.882513888   0.522907794
H        0.299788212   1.210129169   0.344475814
H        0.802235686   0.215275983   0.345195286
H        0.136504313   0.548893647   0.814404008
H        0.636114742   0.551097985   0.813943802

     Writing output data file 2305.save
     NEW-OLD atomic charge density approx. for the potential

[...]

     Threshold (ethr) on eigenvalues was too large:
     Diagonalizing with lowered threshold

     Davidson diagonalization with overlap
     ethr =  1.82E-08,  avg # of iterations =  2.8

[...]

     bfgs converged in  32 scf cycles and  31 bfgs steps
     (criteria: energy <  1.0E-04 Ry, force <  1.0E-03Ry/Bohr, cell <  5.0E-01kbar)

     End of BFGS Geometry Optimization

     Final enthalpy =   -2248.2158233339 Ry
Begin final coordinates
     new unit-cell volume =    880.86361 a.u.^3 (   130.53052 Ang^3 )
     density =      8.10438 g/cm^3

CELL_PARAMETERS (angstrom)
   7.227900000   0.000000000   0.000000000
  -1.807000000   3.129800000   0.000000000
   0.000000000   0.000000000   5.770100000

ATOMIC_POSITIONS (crystal)
Gd       0.302944317   0.215842798   0.701260950
Gd       0.803261534   0.217432131   0.701781312
Gd       0.136138624   0.547352364   0.193827997
Gd       0.635993580   0.549195849   0.194509010
H        0.303127984   0.213591819   1.056103731
H        0.802836203   0.216523736   1.056853911
H        0.969318008   0.884750631   0.528136385
H        0.469636796   0.882513888   0.522907794
H        0.299788212   1.210129169   0.344475814
H        0.802235686   0.215275983   0.345195286
H        0.136504313   0.548893647   0.814404008
H        0.636114742   0.551097985   0.813943802
End final coordinates

     A final scf calculation at the relaxed structure.
     The G-vectors are recalculated for the final unit cell
     Results may differ from those at the preceding step.

     bravais-lattice index     =            0
     lattice parameter (alat)  =      13.6588  a.u.
     unit-cell volume          =     880.8636 (a.u.)^3
     number of atoms/cell      =           12
     number of atomic types    =            2
     number of electrons       =        52.00
     number of Kohn-Sham states=           62
     kinetic-energy cutoff     =      50.0000  Ry
     charge density cutoff     =     200.0000  Ry
     convergence threshold     =      1.0E-08
     mixing beta               =       0.7000
     number of iterations used =            8  plain     mixing
     Exchange-correlation      =  SLA  PW   PBX  PBC ( 1  4  3  4 0 0)
     Non magnetic calculation with spin-orbit

     celldm(1)=  13.658752  celldm(2)=   0.000000  celldm(3)=   0.000000
     celldm(4)=   0.000000  celldm(5)=   0.000000  celldm(6)=   0.000000

     crystal axes: (cart. coord. in units of alat)
               a(1) = (   1.000000   0.000000   0.000000 )
               a(2) = (  -0.250003   0.433017   0.000000 )
               a(3) = (   0.000000   0.000000   0.798309 )

     reciprocal axes: (cart. coord. in units 2 pi/alat)
               b(1) = (  1.000000  0.577353  0.000000 )
               b(2) = (  0.000000  2.309381  0.000000 )
               b(3) = (  0.000000  0.000000  1.252647 )

     PseudoPot. # 1 for Gd read from file:
     /home/shaharpit/MeamGdH/dft/qe_potentials/Gd.rel-pbe-spdn-kjpaw_psl.1.0.0.UPF
     MD5 check sum: cf50ec46d1536b4a0251694df1946a53
     Pseudo is Projector augmented-wave + core cor, Zval = 11.0
     Generated using "atomic" code by A. Dal Corso  v.6.2.2
     Shape of augmentation charge: PSQ
     Using radial grid of 1263 points, 10 beta functions with:
                l(1) =   0
                l(2) =   0
                l(3) =   1
                l(4) =   1
                l(5) =   1
                l(6) =   1
                l(7) =   2
                l(8) =   2
                l(9) =   2
               l(10) =   2
     Q(r) pseudized with 0 coefficients

     PseudoPot. # 2 for  H read from file:
     /home/shaharpit/MeamGdH/dft/qe_potentials/H.pbe-kjpaw_psl.0.1.UPF
     MD5 check sum: fbb168fef676c0aaadbafd73f5b1efa8
     Pseudo is Projector augmented-wave, Zval =  1.0
     Generated using "atomic" code by A. Dal Corso  v.5.0.2 svn rev. 9415
     Shape of augmentation charge: PSQ
     Using radial grid of  929 points,  2 beta functions with:
                l(1) =   0
                l(2) =   0
     Q(r) pseudized with 0 coefficients

     atomic species   valence    mass     pseudopotential
        Gd            11.00   157.25000     Gd( 1.00)
        H              1.00     1.00794      H( 1.00)

     No symmetry found

   Cartesian axes

     site n.     atom                  positions (alat units)
         1           Gd  tau(   1) = (   0.2489829   0.0934635   0.5598232  )
         2           Gd  tau(   2) = (   0.7489027   0.0941517   0.5602386  )
         3           Gd  tau(   3) = (  -0.0007014   0.2370126   0.1547347  )
         4           Gd  tau(   4) = (   0.4986927   0.2378109   0.1552784  )
         5           H   tau(   5) = (   0.2497293   0.0924888   0.8430975  )
         6           H   tau(   6) = (   0.7487045   0.0937584   0.8436963  )
         7           H   tau(   7) = (   0.7481273   0.3831116   0.4216162  )
         8           H   tau(   8) = (   0.2490053   0.3821431   0.4174422  )
         9           H   tau(   9) = (  -0.0027483   0.5240059   0.2749983  )
        10           H   tau(  10) = (   0.7484159   0.0932181   0.2755726  )
        11           H   tau(  11) = (  -0.0007210   0.2376800   0.6501463  )
        12           H   tau(  12) = (   0.4983383   0.2386345   0.6497789  )

     number of k points=    36  gaussian smearing, width (Ry)=  0.0100
                       cart. coord. in units 2pi/alat
        k(    1) = (   0.0000000   0.0000000   0.0000000), wk =   0.0156250
        k(    2) = (   0.0000000   0.0000000   0.3131618), wk =   0.0312500
        k(    3) = (   0.0000000   0.0000000  -0.6263236), wk =   0.0156250
        k(    4) = (   0.0000000   0.5773452   0.0000000), wk =   0.0312500
        k(    5) = (   0.0000000   0.5773452   0.3131618), wk =   0.0312500
        k(    6) = (   0.0000000   0.5773452  -0.6263236), wk =   0.0312500
        k(    7) = (   0.0000000  -1.1546904   0.0000000), wk =   0.0156250
        k(    8) = (   0.0000000  -1.1546904   0.3131618), wk =   0.0312500
        k(    9) = (   0.0000000  -1.1546904  -0.6263236), wk =   0.0156250
        k(   10) = (   0.2500000   0.1443383   0.0000000), wk =   0.0312500
        k(   11) = (   0.2500000   0.1443383   0.3131618), wk =   0.0312500
        k(   12) = (   0.2500000   0.1443383  -0.6263236), wk =   0.0312500
        k(   13) = (   0.2500000   0.7216835   0.0000000), wk =   0.0312500
        k(   14) = (   0.2500000   0.7216835   0.3131618), wk =   0.0312500
        k(   15) = (   0.2500000   0.7216835  -0.6263236), wk =   0.0312500
        k(   16) = (   0.2500000  -1.0103521   0.0000000), wk =   0.0312500
        k(   17) = (   0.2500000  -1.0103521   0.3131618), wk =   0.0312500
        k(   18) = (   0.2500000  -1.0103521  -0.6263236), wk =   0.0312500
        k(   19) = (   0.2500000  -0.4330069   0.0000000), wk =   0.0312500
        k(   20) = (   0.2500000  -0.4330069   0.3131618), wk =   0.0312500
        k(   21) = (   0.2500000  -0.4330069  -0.6263236), wk =   0.0312500
        k(   22) = (  -0.5000000  -0.2886766   0.0000000), wk =   0.0156250
        k(   23) = (  -0.5000000  -0.2886766   0.3131618), wk =   0.0312500
        k(   24) = (  -0.5000000  -0.2886766  -0.6263236), wk =   0.0156250
        k(   25) = (  -0.5000000   0.2886686   0.0000000), wk =   0.0312500
        k(   26) = (  -0.5000000   0.2886686   0.3131618), wk =   0.0312500
        k(   27) = (  -0.5000000   0.2886686  -0.6263236), wk =   0.0312500
        k(   28) = (  -0.5000000  -1.4433670   0.0000000), wk =   0.0156250
        k(   29) = (  -0.5000000  -1.4433670   0.3131618), wk =   0.0312500
        k(   30) = (  -0.5000000  -1.4433670  -0.6263236), wk =   0.0156250
        k(   31) = (   0.0000000  -0.5773452   0.3131618), wk =   0.0312500
        k(   32) = (  -0.2500000  -0.1443383   0.3131618), wk =   0.0312500
        k(   33) = (  -0.2500000  -0.7216835   0.3131618), wk =   0.0312500
        k(   34) = (  -0.2500000   1.0103521   0.3131618), wk =   0.0312500
        k(   35) = (  -0.2500000   0.4330069   0.3131618), wk =   0.0312500
        k(   36) = (   0.5000000  -0.2886686   0.3131618), wk =   0.0312500

     Initial potential from superposition of free atoms

     starting charge   51.92374, renormalised to   52.00000
     Starting wfc are  120 randomized atomic wfcs
     Checking if some PAW data can be deallocated...

     Writing output data file 2305.save

     Self-consistent Calculation

     iteration #  1     ecut=    50.00 Ry     beta=0.70
     Davidson diagonalization with overlap
     c_bands:  1 eigenvalues not converged
     ethr =  1.00E-06,  avg # of iterations = 13.4

[...]

     total energy              =   -2248.21582285 Ry
     Harris-Foulkes estimate   =   -2248.21582366 Ry
     estimated scf accuracy    <       0.00000022 Ry

     iteration # 11     ecut=    50.00 Ry     beta=0.70
     Davidson diagonalization with overlap
     ethr =  4.31E-10,  avg # of iterations =  2.2

     End of self-consistent calculation

[...]

          k =-0.2500 0.4330 0.3132 (  5259 PWs)   bands (ev):

[...]

          k = 0.5000-0.2887 0.3132 (  5250 PWs)   bands (ev):

   -32.9108 -32.9108 -32.8818 -32.8818 -32.0601 -32.0601 -32.0343 -32.0343
   -13.7901 -13.7528 -13.6959 -13.6943 -12.9999 -12.9820 -12.9051 -12.8981
    -9.7620  -9.6392  -9.5859  -9.5797  -9.5235  -9.4660  -9.3773  -9.3522
    -8.9156  -8.8811  -8.7818  -8.7376  -8.7113  -8.6778  -8.5456  -8.5237
     4.1716   4.1797   5.0678   5.2640   5.8456   5.8529   6.4032   6.4523
     6.6769   6.7813   6.9319   6.9380   8.0013   8.0425   8.6774   8.6953
    10.4610  10.5165  10.9727  10.9961  11.4810  11.5766  11.9547  12.0302
    12.4539  12.5112  12.8753  12.8828  13.8531  13.8726

     the Fermi energy is    11.4464 ev

!    total energy              =   -2248.21582333 Ry
     Harris-Foulkes estimate   =   -2248.21582288 Ry
     estimated scf accuracy    <          1.5E-09 Ry

     total all-electron energy =    -90252.559200 Ry

     The total energy is the sum of the following terms:

     one-electron contribution =     -30.38007520 Ry
     hartree contribution      =      39.59821566 Ry
     xc contribution           =    -257.79290308 Ry
     ewald contribution        =    -251.56658524 Ry
     one-center paw contrib.   =   -1748.07279717 Ry
     smearing contrib. (-TS)   =      -0.00167830 Ry

     convergence has been achieved in  11 iterations

     Forces acting on atoms (cartesian axes, Ry/au):

     atom    1 type  1   force =     0.00046895    0.00000230   -0.00041185
     atom    2 type  1   force =    -0.00052705    0.00003311   -0.00006307
     atom    3 type  1   force =     0.00011045    0.00007139    0.00029719
     atom    4 type  1   force =    -0.00005398   -0.00012725   -0.00061679
     atom    5 type  2   force =    -0.00006886    0.00040104    0.00026849
     atom    6 type  2   force =     0.00012742   -0.00016182   -0.00007637
     atom    7 type  2   force =    -0.00004317   -0.00053546   -0.00022321
     atom    8 type  2   force =    -0.00000320   -0.00026917    0.00032360
     atom    9 type  2   force =    -0.00000567    0.00060311    0.00027328
     atom   10 type  2   force =    -0.00013773    0.00019455   -0.00005629
     atom   11 type  2   force =    -0.00014892    0.00032614   -0.00027030
     atom   12 type  2   force =     0.00028176   -0.00053795    0.00055532

     Total force =     0.001832     Total SCF correction =     0.000087

     Computing stress (Cartesian axis) and pressure

     Message from routine stres:
     noncollinear stress + GGA not implemented

     Writing output data file 2305.save

     General routines

     Parallel routines

   This run was terminated on:  17:36:27  13Oct2022

   JOB DONE.
Removing 2305 from /home/shaharpit/tmp