     Program PWSCF v.6.1 (svn rev. 13369) starts on 30Nov2022 at 13:42:29

     Current dimensions of program PWSCF are:
     Max number of different atomic species (ntypx) = 10
     Max number of k-points (npk) =  40000
     Max angular momentum in pseudopotentials (lmaxx) =  3
               file Gd.rel-pbe-spdn-kjpaw_psl.1.0.0.UPF: wavefunction(s)  5P 5P renormalized
               file H.pbe-kjpaw_psl.0.1.UPF: wavefunction(s)  1S renormalized

     Subspace diagonalization in iterative solution of the eigenvalue problem:
     a serial algorithm will be used

     bravais-lattice index     =            0
     lattice parameter (alat)  =      10.3447  a.u.
     unit-cell volume          =    1107.0280 (a.u.)^3
     number of atoms/cell      =            8
     number of atomic types    =            2
     number of electrons       =        48.00
     number of Kohn-Sham states=           58
     kinetic-energy cutoff     =      50.0000  Ry
     charge density cutoff     =     200.0000  Ry
     convergence threshold     =      1.0E-06
     mixing beta               =       0.7000
     number of iterations used =            8  plain     mixing
     Exchange-correlation      =  SLA  PW   PBX  PBC ( 1  4  3  4 0 0)
     Non magnetic calculation with spin-orbit

     celldm(1)=  10.344739  celldm(2)=   0.000000  celldm(3)=   0.000000
     celldm(4)=   0.000000  celldm(5)=   0.000000  celldm(6)=   0.000000

     crystal axes: (cart. coord. in units of alat)
               a(1) = (   1.000000   0.000000   0.000000 )
               a(2) = (   0.000000   1.000000   0.000000 )
               a(3) = (   0.000000   0.000000   1.000000 )

     reciprocal axes: (cart. coord. in units 2 pi/alat)
               b(1) = (  1.000000  0.000000  0.000000 )
               b(2) = (  0.000000  1.000000  0.000000 )
               b(3) = (  0.000000  0.000000  1.000000 )

     PseudoPot. # 1 for Gd read from file:
     /home/shaharpit/MeamGdH/dft/qe_potentials/Gd.rel-pbe-spdn-kjpaw_psl.1.0.0.UPF
     MD5 check sum: cf50ec46d1536b4a0251694df1946a53
     Pseudo is Projector augmented-wave + core cor, Zval = 11.0
     Generated using "atomic" code by A. Dal Corso  v.6.2.2
     Shape of augmentation charge: PSQ
     Using radial grid of 1263 points, 10 beta functions with:
                l(1) =   0
                l(2) =   0
                l(3) =   1
                l(4) =   1
                l(5) =   1
                l(6) =   1
                l(7) =   2
                l(8) =   2
                l(9) =   2
               l(10) =   2
     Q(r) pseudized with 0 coefficients

     PseudoPot. # 2 for  H read from file:
     /home/shaharpit/MeamGdH/dft/qe_potentials/H.pbe-kjpaw_psl.0.1.UPF
     MD5 check sum: fbb168fef676c0aaadbafd73f5b1efa8
     Pseudo is Projector augmented-wave, Zval =  1.0
     Generated using "atomic" code by A. Dal Corso  v.5.0.2 svn rev. 9415
     Shape of augmentation charge: PSQ
     Using radial grid of  929 points,  2 beta functions with:
                l(1) =   0
                l(2) =   0
     Q(r) pseudized with 0 coefficients

     atomic species   valence    mass     pseudopotential
        Gd            11.00   157.25000     Gd( 1.00)
        H              1.00     1.00794      H( 1.00)

      2 Sym. Ops. (no inversion) found

   Cartesian axes

     site n.     atom                  positions (alat units)
         1           Gd  tau(   1) = (   0.0000000   0.0000000   0.0000000  )
         2           Gd  tau(   2) = (   0.0000000   0.5000000   0.5000000  )
         3           Gd  tau(   3) = (   0.5000000   0.0000000   0.5000000  )
         4           Gd  tau(   4) = (   0.5000000   0.5000000   0.0000000  )
         5           H   tau(   5) = (   0.2500000   0.7539000   0.7539000  )
         6           H   tau(   6) = (   0.2500000   0.7501000   0.2500000  )
         7           H   tau(   7) = (   0.2500000   0.2500000   0.2500000  )
         8           H   tau(   8) = (   0.2500000   0.2500000   0.7501000  )

     number of k points=    24  gaussian smearing, width (Ry)=  0.0100
                       cart. coord. in units 2pi/alat
        k(    1) = (   0.0000000   0.0000000   0.0000000), wk =   0.0156250
        k(    2) = (   0.0000000   0.0000000   0.2500000), wk =   0.0625000
        k(    3) = (   0.0000000   0.0000000  -0.5000000), wk =   0.0312500
        k(    4) = (   0.0000000   0.2500000   0.2500000), wk =   0.0312500
        k(    5) = (   0.0000000   0.2500000  -0.5000000), wk =   0.0625000
        k(    6) = (   0.0000000  -0.5000000  -0.5000000), wk =   0.0156250
        k(    7) = (   0.2500000   0.2500000   0.2500000), wk =   0.0312500
        k(    8) = (   0.2500000   0.2500000  -0.5000000), wk =   0.0625000
        k(    9) = (   0.2500000  -0.5000000  -0.5000000), wk =   0.0312500
        k(   10) = (  -0.5000000  -0.5000000  -0.5000000), wk =   0.0156250
        k(   11) = (   0.2500000   0.0000000   0.0000000), wk =   0.0312500
        k(   12) = (  -0.5000000   0.0000000   0.0000000), wk =   0.0156250
        k(   13) = (   0.0000000   0.2500000  -0.2500000), wk =   0.0312500
        k(   14) = (   0.2500000   0.0000000  -0.2500000), wk =   0.0625000
        k(   15) = (  -0.2500000   0.0000000  -0.2500000), wk =   0.0625000
        k(   16) = (   0.2500000   0.0000000   0.5000000), wk =   0.0625000
        k(   17) = (  -0.5000000  -0.2500000   0.0000000), wk =   0.0625000
        k(   18) = (  -0.5000000   0.0000000   0.5000000), wk =   0.0312500
        k(   19) = (  -0.2500000   0.2500000  -0.2500000), wk =   0.0625000
        k(   20) = (   0.2500000  -0.2500000  -0.2500000), wk =   0.0312500
        k(   21) = (  -0.2500000   0.2500000   0.5000000), wk =   0.0625000
        k(   22) = (  -0.5000000  -0.2500000   0.2500000), wk =   0.0312500
        k(   23) = (   0.5000000  -0.2500000  -0.2500000), wk =   0.0312500
        k(   24) = (  -0.5000000   0.2500000   0.5000000), wk =   0.0625000

     Check: negative/imaginary core charge=   -0.000002    0.000000

     Initial potential from superposition of free atoms

     starting charge   47.92377, renormalised to   48.00000
     Starting wfc are  112 randomized atomic wfcs
     Checking if some PAW data can be deallocated...

     Self-consistent Calculation

     iteration #  1     ecut=    50.00 Ry     beta=0.70
     Davidson diagonalization with overlap
     ethr =  1.00E-02,  avg # of iterations =  2.0

     Threshold (ethr) on eigenvalues was too large:
     Diagonalizing with lowered threshold

     Davidson diagonalization with overlap
     ethr =  8.38E-04,  avg # of iterations =  1.4

     total energy              =   -2243.22022522 Ry
     Harris-Foulkes estimate   =   -2243.49444120 Ry
     estimated scf accuracy    <       0.41408925 Ry

[...]

     total energy              =   -2243.34941499 Ry
     Harris-Foulkes estimate   =   -2243.34942426 Ry
     estimated scf accuracy    <       0.00002356 Ry

     iteration #  7     ecut=    50.00 Ry     beta=0.70
     Davidson diagonalization with overlap
     ethr =  4.91E-08,  avg # of iterations =  3.1

     End of self-consistent calculation

          k = 0.0000 0.0000 0.0000 (  6619 PWs)   bands (ev):

   -36.4140 -36.4140 -36.3838 -36.3838 -36.3780 -36.3780 -36.3704 -36.3704
   -17.1525 -17.1525 -17.1474 -17.1474 -17.1405 -17.1405 -17.0022 -17.0022
   -12.9726 -12.9726 -12.9724 -12.9724 -12.9459 -12.9459 -12.7910 -12.7910
   -12.7623 -12.7623 -12.7618 -12.7618 -12.6323 -12.6323 -12.5947 -12.5947
     1.6034   1.6034   3.8518   3.8518   3.8529   3.8529   4.3245   4.3245
     6.6186   6.6186   6.6188   6.6188   6.6235   6.6235   7.7431   7.7431
     8.7871   8.7871   8.7876   8.7876   9.4044   9.4044   9.4164   9.4164
     9.5813   9.5813

[...]

          k =-0.5000-0.5000-0.5000 (  6704 PWs)   bands (ev):

[...]

          k = 0.5000-0.2500-0.2500 (  6608 PWs)   bands (ev):

[...]

          k =-0.5000 0.2500 0.5000 (  6572 PWs)   bands (ev):

   -36.3958 -36.3958 -36.3867 -36.3867 -36.3867 -36.3867 -36.3768 -36.3768
   -17.1224 -17.1223 -17.1160 -17.1159 -17.1109 -17.1108 -17.1039 -17.1038
   -12.9289 -12.9288 -12.9261 -12.9252 -12.9125 -12.9115 -12.9084 -12.9082
   -12.7014 -12.7004 -12.7000 -12.6989 -12.6943 -12.6930 -12.6923 -12.6916
     3.0084   3.0090   3.0218   3.0225   3.8196   3.8202   3.8332   3.8339
     7.1737   7.1742   7.1752   7.1756   8.3354   8.3359   8.3369   8.3373
     8.9173   8.9180   8.9183   8.9189   9.0864   9.0870   9.0917   9.0923
     9.7762   9.7768

     the Fermi energy is     8.2981 ev

!    total energy              =   -2243.34941929 Ry
     Harris-Foulkes estimate   =   -2243.34941923 Ry
     estimated scf accuracy    <       0.00000017 Ry

     total all-electron energy =    -90247.692813 Ry

     The total energy is the sum of the following terms:

     one-electron contribution =     -67.94481692 Ry
     hartree contribution      =      49.13924722 Ry
     xc contribution           =    -253.75706954 Ry
     ewald contribution        =    -222.73000693 Ry
     one-center paw contrib.   =   -1748.05203706 Ry
     smearing contrib. (-TS)   =      -0.00473607 Ry

     convergence has been achieved in   7 iterations

     Forces acting on atoms (cartesian axes, Ry/au):

     atom    1 type  1   force =     0.03440896    0.00058034    0.00058034
     atom    2 type  1   force =     0.03489342    0.00055082    0.00055082
     atom    3 type  1   force =    -0.03470292    0.00027858    0.00034691
     atom    4 type  1   force =    -0.03470292    0.00034691    0.00027858
     atom    5 type  2   force =     0.00011567   -0.00192502   -0.00192502
     atom    6 type  2   force =    -0.00000527   -0.00007699    0.00019782
     atom    7 type  2   force =    -0.00000168    0.00004753    0.00004753
     atom    8 type  2   force =    -0.00000527    0.00019782   -0.00007699

     Total force =     0.069421     Total SCF correction =     0.000228

     Writing output data file 2395.save

     General routines

     Parallel routines

   This run was terminated on:  13:44:30  30Nov2022

   JOB DONE.
Removing 2395 from /home/shaharpit/tmp