     Program PWSCF v.6.1 (svn rev. 13369) starts on 16Nov2022 at 10:52: 1

     Current dimensions of program PWSCF are:
     Max number of different atomic species (ntypx) = 10
     Max number of k-points (npk) =  40000
     Max angular momentum in pseudopotentials (lmaxx) =  3
               file Gd.rel-pbe-spdn-kjpaw_psl.1.0.0.UPF: wavefunction(s)  5P 5P renormalized
               file H.pbe-kjpaw_psl.0.1.UPF: wavefunction(s)  1S renormalized

     Subspace diagonalization in iterative solution of the eigenvalue problem:
     a serial algorithm will be used

     bravais-lattice index     =            0
     lattice parameter (alat)  =       9.6754  a.u.
     unit-cell volume          =     905.7461 (a.u.)^3
     number of atoms/cell      =            8
     number of atomic types    =            2
     number of electrons       =        48.00
     number of Kohn-Sham states=           58
     kinetic-energy cutoff     =      50.0000  Ry
     charge density cutoff     =     200.0000  Ry
     convergence threshold     =      1.0E-06
     mixing beta               =       0.7000
     number of iterations used =            8  plain     mixing
     Exchange-correlation      =  SLA  PW   PBX  PBC ( 1  4  3  4 0 0)
     Non magnetic calculation with spin-orbit

     celldm(1)=   9.675398  celldm(2)=   0.000000  celldm(3)=   0.000000
     celldm(4)=   0.000000  celldm(5)=   0.000000  celldm(6)=   0.000000

     crystal axes: (cart. coord. in units of alat)
               a(1) = (   1.000000   0.000000   0.000000 )
               a(2) = (   0.000000   1.000000   0.000000 )
               a(3) = (   0.000000   0.000000   1.000000 )

     reciprocal axes: (cart. coord. in units 2 pi/alat)
               b(1) = (  1.000000  0.000000  0.000000 )
               b(2) = (  0.000000  1.000000  0.000000 )
               b(3) = (  0.000000  0.000000  1.000000 )

     PseudoPot. # 1 for Gd read from file:
     /home/shaharpit/MeamGdH/dft/qe_potentials/Gd.rel-pbe-spdn-kjpaw_psl.1.0.0.UPF
     MD5 check sum: cf50ec46d1536b4a0251694df1946a53
     Pseudo is Projector augmented-wave + core cor, Zval = 11.0
     Generated using "atomic" code by A. Dal Corso  v.6.2.2
     Shape of augmentation charge: PSQ
     Using radial grid of 1263 points, 10 beta functions with:
                l(1) =   0
                l(2) =   0
                l(3) =   1
                l(4) =   1
                l(5) =   1
                l(6) =   1
                l(7) =   2
                l(8) =   2
                l(9) =   2
               l(10) =   2
     Q(r) pseudized with 0 coefficients

     PseudoPot. # 2 for  H read from file:
     /home/shaharpit/MeamGdH/dft/qe_potentials/H.pbe-kjpaw_psl.0.1.UPF
     MD5 check sum: fbb168fef676c0aaadbafd73f5b1efa8
     Pseudo is Projector augmented-wave, Zval =  1.0
     Generated using "atomic" code by A. Dal Corso  v.5.0.2 svn rev. 9415
     Shape of augmentation charge: PSQ
     Using radial grid of  929 points,  2 beta functions with:
                l(1) =   0
                l(2) =   0
     Q(r) pseudized with 0 coefficients

     atomic species   valence    mass     pseudopotential
        Gd            11.00   157.25000     Gd( 1.00)
        H              1.00     1.00794      H( 1.00)

      2 Sym. Ops. (no inversion) found

   Cartesian axes

     site n.     atom                  positions (alat units)
         1           Gd  tau(   1) = (   0.0000000   0.0000000   0.0000000  )
         2           Gd  tau(   2) = (   0.0000000   0.5000000   0.5000000  )
         3           Gd  tau(   3) = (   0.5000000   0.0000000   0.5000000  )
         4           Gd  tau(   4) = (   0.5000000   0.5000000   0.0000000  )
         5           H   tau(   5) = (   0.2500000   0.7539000   0.7539000  )
         6           H   tau(   6) = (   0.2500000   0.7501000   0.2500000  )
         7           H   tau(   7) = (   0.2500000   0.2500000   0.2500000  )
         8           H   tau(   8) = (   0.2500000   0.2500000   0.7501000  )

     number of k points=    24  gaussian smearing, width (Ry)=  0.0100
                       cart. coord. in units 2pi/alat
        k(    1) = (   0.0000000   0.0000000   0.0000000), wk =   0.0156250
        k(    2) = (   0.0000000   0.0000000   0.2500000), wk =   0.0625000
        k(    3) = (   0.0000000   0.0000000  -0.5000000), wk =   0.0312500
        k(    4) = (   0.0000000   0.2500000   0.2500000), wk =   0.0312500
        k(    5) = (   0.0000000   0.2500000  -0.5000000), wk =   0.0625000
        k(    6) = (   0.0000000  -0.5000000  -0.5000000), wk =   0.0156250
        k(    7) = (   0.2500000   0.2500000   0.2500000), wk =   0.0312500
        k(    8) = (   0.2500000   0.2500000  -0.5000000), wk =   0.0625000
        k(    9) = (   0.2500000  -0.5000000  -0.5000000), wk =   0.0312500
        k(   10) = (  -0.5000000  -0.5000000  -0.5000000), wk =   0.0156250
        k(   11) = (   0.2500000   0.0000000   0.0000000), wk =   0.0312500
        k(   12) = (  -0.5000000   0.0000000   0.0000000), wk =   0.0156250
        k(   13) = (   0.0000000   0.2500000  -0.2500000), wk =   0.0312500
        k(   14) = (   0.2500000   0.0000000  -0.2500000), wk =   0.0625000
        k(   15) = (  -0.2500000   0.0000000  -0.2500000), wk =   0.0625000
        k(   16) = (   0.2500000   0.0000000   0.5000000), wk =   0.0625000
        k(   17) = (  -0.5000000  -0.2500000   0.0000000), wk =   0.0625000
        k(   18) = (  -0.5000000   0.0000000   0.5000000), wk =   0.0312500
        k(   19) = (  -0.2500000   0.2500000  -0.2500000), wk =   0.0625000
        k(   20) = (   0.2500000  -0.2500000  -0.2500000), wk =   0.0312500
        k(   21) = (  -0.2500000   0.2500000   0.5000000), wk =   0.0625000
        k(   22) = (  -0.5000000  -0.2500000   0.2500000), wk =   0.0312500
        k(   23) = (   0.5000000  -0.2500000  -0.2500000), wk =   0.0312500
        k(   24) = (  -0.5000000   0.2500000   0.5000000), wk =   0.0625000

     Initial potential from superposition of free atoms

     starting charge   47.92377, renormalised to   48.00000
     Starting wfc are  112 randomized atomic wfcs
     Checking if some PAW data can be deallocated...

     Self-consistent Calculation

     iteration #  1     ecut=    50.00 Ry     beta=0.70
     Davidson diagonalization with overlap
     ethr =  1.00E-02,  avg # of iterations =  2.0

     Threshold (ethr) on eigenvalues was too large:
     Diagonalizing with lowered threshold

     Davidson diagonalization with overlap
     ethr =  9.61E-04,  avg # of iterations =  1.0

     total energy              =   -2243.20108067 Ry
     Harris-Foulkes estimate   =   -2243.51997983 Ry
     estimated scf accuracy    <       0.47332367 Ry

[...]

     total energy              =   -2243.35361921 Ry
     Harris-Foulkes estimate   =   -2243.35363031 Ry
     estimated scf accuracy    <       0.00002801 Ry

     iteration #  7     ecut=    50.00 Ry     beta=0.70
     Davidson diagonalization with overlap
     ethr =  5.83E-08,  avg # of iterations =  2.9

     End of self-consistent calculation

          k = 0.0000 0.0000 0.0000 (  5449 PWs)   bands (ev):

   -33.5608 -33.5608 -33.4766 -33.4766 -33.4697 -33.4697 -33.4618 -33.4618
   -14.3820 -14.3820 -14.3776 -14.3776 -14.3694 -14.3694 -14.0691 -14.0691
   -10.3603 -10.3603 -10.3597 -10.3597 -10.3375 -10.3375  -9.9906  -9.9906
    -9.9630  -9.9630  -9.9627  -9.9627  -9.6824  -9.6824  -9.6452  -9.6452
     3.3917   3.3917   5.7509   5.7509   5.7522   5.7522   6.0188   6.0188
     8.4165   8.4165   8.4167   8.4167   8.4224   8.4224  10.5001  10.5001
    11.4068  11.4068  11.4079  11.4079  11.8083  11.8083  11.8225  11.8225
    11.9892  11.9892

[...]

          k =-0.5000-0.5000-0.5000 (  5400 PWs)   bands (ev):

[...]

          k = 0.5000-0.2500-0.2500 (  5420 PWs)   bands (ev):

[...]

          k =-0.5000 0.2500 0.5000 (  5452 PWs)   bands (ev):

   -33.5023 -33.5023 -33.4923 -33.4923 -33.4921 -33.4921 -33.4814 -33.4814
   -14.3215 -14.3211 -14.3162 -14.3160 -14.3029 -14.3027 -14.2970 -14.2967
   -10.2863 -10.2857 -10.2834 -10.2828 -10.2486 -10.2479 -10.2450 -10.2445
    -9.8331  -9.8319  -9.8316  -9.8291  -9.8256  -9.8235  -9.8227  -9.8223
     4.9928   4.9938   5.0053   5.0063   5.6917   5.6927   5.7044   5.7054
     9.6914   9.6922   9.6933   9.6941  10.7750  10.7761  10.7772  10.7783
    11.1755  11.1766  11.1771  11.1782  11.3500  11.3508  11.3558  11.3566
    12.2244  12.2250

     the Fermi energy is    10.5406 ev

!    total energy              =   -2243.35362431 Ry
     Harris-Foulkes estimate   =   -2243.35362428 Ry
     estimated scf accuracy    <       0.00000008 Ry

     total all-electron energy =    -90247.697018 Ry

     The total energy is the sum of the following terms:

     one-electron contribution =     -45.65516331 Ry
     hartree contribution      =      42.97824558 Ry
     xc contribution           =    -254.46272760 Ry
     ewald contribution        =    -238.13839921 Ry
     one-center paw contrib.   =   -1748.07156783 Ry
     smearing contrib. (-TS)   =      -0.00401193 Ry

     convergence has been achieved in   7 iterations

     Writing output data file 2319.save

     General routines

     Parallel routines

   This run was terminated on:  10:54: 0  16Nov2022

   JOB DONE.
Removing 2319 from /home/shaharpit/tmp