     Program PWSCF v.6.1 (svn rev. 13369) starts on 30Nov2022 at 13:42:28

     Current dimensions of program PWSCF are:
     Max number of different atomic species (ntypx) = 10
     Max number of k-points (npk) =  40000
     Max angular momentum in pseudopotentials (lmaxx) =  3
               file Gd.rel-pbe-spdn-kjpaw_psl.1.0.0.UPF: wavefunction(s)  5P 5P renormalized
               file H.pbe-kjpaw_psl.0.1.UPF: wavefunction(s)  1S renormalized

     Subspace diagonalization in iterative solution of the eigenvalue problem:
     a serial algorithm will be used

     bravais-lattice index     =            0
     lattice parameter (alat)  =       9.6754  a.u.
     unit-cell volume          =     905.7461 (a.u.)^3
     number of atoms/cell      =           12
     number of atomic types    =            2
     number of electrons       =        52.00
     number of Kohn-Sham states=           62
     kinetic-energy cutoff     =      50.0000  Ry
     charge density cutoff     =     200.0000  Ry
     convergence threshold     =      1.0E-06
     mixing beta               =       0.7000
     number of iterations used =            8  plain     mixing
     Exchange-correlation      =  SLA  PW   PBX  PBC ( 1  4  3  4 0 0)
     Non magnetic calculation with spin-orbit

     celldm(1)=   9.675398  celldm(2)=   0.000000  celldm(3)=   0.000000
     celldm(4)=   0.000000  celldm(5)=   0.000000  celldm(6)=   0.000000

     crystal axes: (cart. coord. in units of alat)
               a(1) = (   1.000000   0.000000   0.000000 )
               a(2) = (   0.000000   1.000000   0.000000 )
               a(3) = (   0.000000   0.000000   1.000000 )

     reciprocal axes: (cart. coord. in units 2 pi/alat)
               b(1) = (  1.000000  0.000000  0.000000 )
               b(2) = (  0.000000  1.000000  0.000000 )
               b(3) = (  0.000000  0.000000  1.000000 )

     PseudoPot. # 1 for Gd read from file:
     /home/shaharpit/MeamGdH/dft/qe_potentials/Gd.rel-pbe-spdn-kjpaw_psl.1.0.0.UPF
     MD5 check sum: cf50ec46d1536b4a0251694df1946a53
     Pseudo is Projector augmented-wave + core cor, Zval = 11.0
     Generated using "atomic" code by A. Dal Corso  v.6.2.2
     Shape of augmentation charge: PSQ
     Using radial grid of 1263 points, 10 beta functions with:
                l(1) =   0
                l(2) =   0
                l(3) =   1
                l(4) =   1
                l(5) =   1
                l(6) =   1
                l(7) =   2
                l(8) =   2
                l(9) =   2
               l(10) =   2
     Q(r) pseudized with 0 coefficients

     PseudoPot. # 2 for  H read from file:
     /home/shaharpit/MeamGdH/dft/qe_potentials/H.pbe-kjpaw_psl.0.1.UPF
     MD5 check sum: fbb168fef676c0aaadbafd73f5b1efa8
     Pseudo is Projector augmented-wave, Zval =  1.0
     Generated using "atomic" code by A. Dal Corso  v.5.0.2 svn rev. 9415
     Shape of augmentation charge: PSQ
     Using radial grid of  929 points,  2 beta functions with:
                l(1) =   0
                l(2) =   0
     Q(r) pseudized with 0 coefficients

     atomic species   valence    mass     pseudopotential
        Gd            11.00   157.25000     Gd( 1.00)
        H              1.00     1.00794      H( 1.00)

      2 Sym. Ops. (no inversion) found

   Cartesian axes

     site n.     atom                  positions (alat units)
         1           Gd  tau(   1) = (   0.0000000   0.0000000   0.0000000  )
         2           Gd  tau(   2) = (   0.0000000   0.5000000   0.5000000  )
         3           Gd  tau(   3) = (   0.5000000   0.0000000   0.5000000  )
         4           Gd  tau(   4) = (   0.5000000   0.5000000   0.0000000  )
         5           H   tau(   5) = (   0.2500000   0.7539000   0.7539000  )
         6           H   tau(   6) = (   0.2500000   0.7501000   0.2500000  )
         7           H   tau(   7) = (   0.2500000   0.2500000   0.2500000  )
         8           H   tau(   8) = (   0.2500000   0.2500000   0.7501000  )
         9           H   tau(   9) = (   0.7501000   0.2500000   0.7501000  )
        10           H   tau(  10) = (   0.7501000   0.2500000   0.2500000  )
        11           H   tau(  11) = (   0.7501000   0.7501000   0.2500000  )
        12           H   tau(  12) = (   0.7501000   0.7501000   0.7501000  )

     number of k points=    24  gaussian smearing, width (Ry)=  0.0100
                       cart. coord. in units 2pi/alat
        k(    1) = (   0.0000000   0.0000000   0.0000000), wk =   0.0156250
        k(    2) = (   0.0000000   0.0000000   0.2500000), wk =   0.0625000
        k(    3) = (   0.0000000   0.0000000  -0.5000000), wk =   0.0312500
        k(    4) = (   0.0000000   0.2500000   0.2500000), wk =   0.0312500
        k(    5) = (   0.0000000   0.2500000  -0.5000000), wk =   0.0625000
        k(    6) = (   0.0000000  -0.5000000  -0.5000000), wk =   0.0156250
        k(    7) = (   0.2500000   0.2500000   0.2500000), wk =   0.0312500
        k(    8) = (   0.2500000   0.2500000  -0.5000000), wk =   0.0625000
        k(    9) = (   0.2500000  -0.5000000  -0.5000000), wk =   0.0312500
        k(   10) = (  -0.5000000  -0.5000000  -0.5000000), wk =   0.0156250
        k(   11) = (   0.2500000   0.0000000   0.0000000), wk =   0.0312500
        k(   12) = (  -0.5000000   0.0000000   0.0000000), wk =   0.0156250
        k(   13) = (   0.0000000   0.2500000  -0.2500000), wk =   0.0312500
        k(   14) = (   0.2500000   0.0000000  -0.2500000), wk =   0.0625000
        k(   15) = (  -0.2500000   0.0000000  -0.2500000), wk =   0.0625000
        k(   16) = (   0.2500000   0.0000000   0.5000000), wk =   0.0625000
        k(   17) = (  -0.5000000  -0.2500000   0.0000000), wk =   0.0625000
        k(   18) = (  -0.5000000   0.0000000   0.5000000), wk =   0.0312500
        k(   19) = (  -0.2500000   0.2500000  -0.2500000), wk =   0.0625000
        k(   20) = (   0.2500000  -0.2500000  -0.2500000), wk =   0.0312500
        k(   21) = (  -0.2500000   0.2500000   0.5000000), wk =   0.0625000
        k(   22) = (  -0.5000000  -0.2500000   0.2500000), wk =   0.0312500
        k(   23) = (   0.5000000  -0.2500000  -0.2500000), wk =   0.0312500
        k(   24) = (  -0.5000000   0.2500000   0.5000000), wk =   0.0625000

     Initial potential from superposition of free atoms

     starting charge   51.92374, renormalised to   52.00000
     Starting wfc are  120 randomized atomic wfcs
     Checking if some PAW data can be deallocated...

     Self-consistent Calculation

     iteration #  1     ecut=    50.00 Ry     beta=0.70
     Davidson diagonalization with overlap
     ethr =  1.00E-02,  avg # of iterations =  2.2

     total energy              =   -2248.30456085 Ry
     Harris-Foulkes estimate   =   -2248.63552597 Ry
     estimated scf accuracy    <       0.59574883 Ry

[...]

     total energy              =   -2248.40541136 Ry
     Harris-Foulkes estimate   =   -2248.40541227 Ry
     estimated scf accuracy    <       0.00000436 Ry

     iteration #  6     ecut=    50.00 Ry     beta=0.70
     Davidson diagonalization with overlap
     ethr =  8.38E-09,  avg # of iterations =  2.9

     End of self-consistent calculation

          k = 0.0000 0.0000 0.0000 (  5449 PWs)   bands (ev):

   -32.9960 -32.9960 -32.9052 -32.9052 -32.8982 -32.8982 -32.8884 -32.8884
   -13.8664 -13.8664 -13.8602 -13.8602 -13.8526 -13.8526 -13.5214 -13.5214
    -9.9083  -9.9083  -9.9055  -9.9055  -9.9033  -9.9033  -9.4618  -9.4618
    -9.4581  -9.4581  -9.4550  -9.4550  -9.1326  -9.1326  -9.1324  -9.1324
     2.6658   2.6658   5.3422   5.3422   5.3424   5.3424   5.3427   5.3427
     7.5628   7.5628   7.5656   7.5656   7.5677   7.5677   8.6235   8.6235
     8.6243   8.6243   8.6252   8.6252   9.3881   9.3881  11.9274  11.9274
    11.9292  11.9292  12.0900  12.0900  14.8646  14.8649

[...]

          k =-0.5000-0.5000-0.5000 (  5400 PWs)   bands (ev):

[...]

          k = 0.5000-0.2500-0.2500 (  5420 PWs)   bands (ev):

[...]

          k =-0.5000 0.2500 0.5000 (  5452 PWs)   bands (ev):

   -32.9329 -32.9329 -32.9224 -32.9224 -32.9224 -32.9224 -32.9093 -32.9093
   -13.7954 -13.7954 -13.7866 -13.7865 -13.7864 -13.7864 -13.7753 -13.7753
    -9.8031  -9.8031  -9.8022  -9.8017  -9.7966  -9.7961  -9.7951  -9.7951
    -9.3163  -9.3160  -9.3159  -9.3157  -9.3077  -9.3074  -9.3073  -9.3072
     4.8721   4.8730   4.8832   4.8832   4.8835   4.8835   4.8932   4.8940
     7.1894   7.1901   7.1978   7.1979   7.1982   7.1983   7.2069   7.2076
    11.4172  11.4175  11.4199  11.4200  11.4223  11.4225  11.4247  11.4250
    12.4383  12.4384  12.4392  12.4400  12.4403  12.4413

     the Fermi energy is    10.6395 ev

!    total energy              =   -2248.40541304 Ry
     Harris-Foulkes estimate   =   -2248.40541319 Ry
     estimated scf accuracy    <       0.00000062 Ry

     total all-electron energy =    -90252.748790 Ry

     The total energy is the sum of the following terms:

     one-electron contribution =     -34.84972978 Ry
     hartree contribution      =      40.90405477 Ry
     xc contribution           =    -257.74970576 Ry
     ewald contribution        =    -248.63103520 Ry
     one-center paw contrib.   =   -1748.07717631 Ry
     smearing contrib. (-TS)   =      -0.00182076 Ry

     convergence has been achieved in   6 iterations

     Forces acting on atoms (cartesian axes, Ry/au):

     atom    1 type  1   force =    -0.00064392    0.00122562    0.00122562
     atom    2 type  1   force =     0.00071803    0.00103692    0.00103692
     atom    3 type  1   force =     0.00004239    0.00043310    0.00042114
     atom    4 type  1   force =     0.00004239    0.00042114    0.00043310
     atom    5 type  2   force =     0.00020019   -0.00348744   -0.00348744
     atom    6 type  2   force =     0.00000290   -0.00008907    0.00027422
     atom    7 type  2   force =     0.00000514    0.00003545    0.00003545
     atom    8 type  2   force =     0.00000290    0.00027422   -0.00008907
     atom    9 type  2   force =    -0.00009205    0.00003737   -0.00014990
     atom   10 type  2   force =    -0.00009722    0.00035358    0.00035358
     atom   11 type  2   force =    -0.00009205   -0.00014990    0.00003737
     atom   12 type  2   force =    -0.00008871   -0.00009098   -0.00009098

     Total force =     0.005630     Total SCF correction =     0.000554

     Writing output data file 2384.save

     General routines

     Parallel routines

   This run was terminated on:  13:44:33  30Nov2022

   JOB DONE.
Removing 2384 from /home/shaharpit/tmp