     Program PWSCF v.6.1 (svn rev. 13369) starts on 30Nov2022 at 13:42:29

     Current dimensions of program PWSCF are:
     Max number of different atomic species (ntypx) = 10
     Max number of k-points (npk) =  40000
     Max angular momentum in pseudopotentials (lmaxx) =  3
               file Gd.rel-pbe-spdn-kjpaw_psl.1.0.0.UPF: wavefunction(s)  5P 5P renormalized
               file H.pbe-kjpaw_psl.0.1.UPF: wavefunction(s)  1S renormalized

     Subspace diagonalization in iterative solution of the eigenvalue problem:
     a serial algorithm will be used

     bravais-lattice index     =            0
     lattice parameter (alat)  =      10.0212  a.u.
     unit-cell volume          =    1006.3788 (a.u.)^3
     number of atoms/cell      =            8
     number of atomic types    =            2
     number of electrons       =        48.00
     number of Kohn-Sham states=           58
     kinetic-energy cutoff     =      50.0000  Ry
     charge density cutoff     =     200.0000  Ry
     convergence threshold     =      1.0E-06
     mixing beta               =       0.7000
     number of iterations used =            8  plain     mixing
     Exchange-correlation      =  SLA  PW   PBX  PBC ( 1  4  3  4 0 0)
     Non magnetic calculation with spin-orbit

     celldm(1)=  10.021218  celldm(2)=   0.000000  celldm(3)=   0.000000
     celldm(4)=   0.000000  celldm(5)=   0.000000  celldm(6)=   0.000000

     crystal axes: (cart. coord. in units of alat)
               a(1) = (   1.000000   0.000000   0.000000 )
               a(2) = (   0.000000   1.000000   0.000000 )
               a(3) = (   0.000000   0.000000   1.000000 )

     reciprocal axes: (cart. coord. in units 2 pi/alat)
               b(1) = (  1.000000  0.000000  0.000000 )
               b(2) = (  0.000000  1.000000  0.000000 )
               b(3) = (  0.000000  0.000000  1.000000 )

     PseudoPot. # 1 for Gd read from file:
     /home/shaharpit/MeamGdH/dft/qe_potentials/Gd.rel-pbe-spdn-kjpaw_psl.1.0.0.UPF
     MD5 check sum: cf50ec46d1536b4a0251694df1946a53
     Pseudo is Projector augmented-wave + core cor, Zval = 11.0
     Generated using "atomic" code by A. Dal Corso  v.6.2.2
     Shape of augmentation charge: PSQ
     Using radial grid of 1263 points, 10 beta functions with:
                l(1) =   0
                l(2) =   0
                l(3) =   1
                l(4) =   1
                l(5) =   1
                l(6) =   1
                l(7) =   2
                l(8) =   2
                l(9) =   2
               l(10) =   2
     Q(r) pseudized with 0 coefficients

     PseudoPot. # 2 for  H read from file:
     /home/shaharpit/MeamGdH/dft/qe_potentials/H.pbe-kjpaw_psl.0.1.UPF
     MD5 check sum: fbb168fef676c0aaadbafd73f5b1efa8
     Pseudo is Projector augmented-wave, Zval =  1.0
     Generated using "atomic" code by A. Dal Corso  v.5.0.2 svn rev. 9415
     Shape of augmentation charge: PSQ
     Using radial grid of  929 points,  2 beta functions with:
                l(1) =   0
                l(2) =   0
     Q(r) pseudized with 0 coefficients

     atomic species   valence    mass     pseudopotential
        Gd            11.00   157.25000     Gd( 1.00)
        H              1.00     1.00794      H( 1.00)

      2 Sym. Ops. (no inversion) found

   Cartesian axes

     site n.     atom                  positions (alat units)
         1           Gd  tau(   1) = (   0.0000000   0.0000000   0.0000000  )
         2           Gd  tau(   2) = (   0.0000000   0.5000000   0.5000000  )
         3           Gd  tau(   3) = (   0.5000000   0.0000000   0.5000000  )
         4           Gd  tau(   4) = (   0.5000000   0.5000000   0.0000000  )
         5           H   tau(   5) = (   0.2500000   0.7539000   0.7539000  )
         6           H   tau(   6) = (   0.2500000   0.7501000   0.2500000  )
         7           H   tau(   7) = (   0.2500000   0.2500000   0.2500000  )
         8           H   tau(   8) = (   0.2500000   0.2500000   0.7501000  )

     number of k points=    24  gaussian smearing, width (Ry)=  0.0100
                       cart. coord. in units 2pi/alat
        k(    1) = (   0.0000000   0.0000000   0.0000000), wk =   0.0156250
        k(    2) = (   0.0000000   0.0000000   0.2500000), wk =   0.0625000
        k(    3) = (   0.0000000   0.0000000  -0.5000000), wk =   0.0312500
        k(    4) = (   0.0000000   0.2500000   0.2500000), wk =   0.0312500
        k(    5) = (   0.0000000   0.2500000  -0.5000000), wk =   0.0625000
        k(    6) = (   0.0000000  -0.5000000  -0.5000000), wk =   0.0156250
        k(    7) = (   0.2500000   0.2500000   0.2500000), wk =   0.0312500
        k(    8) = (   0.2500000   0.2500000  -0.5000000), wk =   0.0625000
        k(    9) = (   0.2500000  -0.5000000  -0.5000000), wk =   0.0312500
        k(   10) = (  -0.5000000  -0.5000000  -0.5000000), wk =   0.0156250
        k(   11) = (   0.2500000   0.0000000   0.0000000), wk =   0.0312500
        k(   12) = (  -0.5000000   0.0000000   0.0000000), wk =   0.0156250
        k(   13) = (   0.0000000   0.2500000  -0.2500000), wk =   0.0312500
        k(   14) = (   0.2500000   0.0000000  -0.2500000), wk =   0.0625000
        k(   15) = (  -0.2500000   0.0000000  -0.2500000), wk =   0.0625000
        k(   16) = (   0.2500000   0.0000000   0.5000000), wk =   0.0625000
        k(   17) = (  -0.5000000  -0.2500000   0.0000000), wk =   0.0625000
        k(   18) = (  -0.5000000   0.0000000   0.5000000), wk =   0.0312500
        k(   19) = (  -0.2500000   0.2500000  -0.2500000), wk =   0.0625000
        k(   20) = (   0.2500000  -0.2500000  -0.2500000), wk =   0.0312500
        k(   21) = (  -0.2500000   0.2500000   0.5000000), wk =   0.0625000
        k(   22) = (  -0.5000000  -0.2500000   0.2500000), wk =   0.0312500
        k(   23) = (   0.5000000  -0.2500000  -0.2500000), wk =   0.0312500
        k(   24) = (  -0.5000000   0.2500000   0.5000000), wk =   0.0625000

     Check: negative/imaginary core charge=   -0.000002    0.000000

     Initial potential from superposition of free atoms

     starting charge   47.92377, renormalised to   48.00000
     Starting wfc are  112 randomized atomic wfcs
     Checking if some PAW data can be deallocated...

     Self-consistent Calculation

     iteration #  1     ecut=    50.00 Ry     beta=0.70
     Davidson diagonalization with overlap
     ethr =  1.00E-02,  avg # of iterations =  2.0

     Threshold (ethr) on eigenvalues was too large:
     Diagonalizing with lowered threshold

     Davidson diagonalization with overlap
     ethr =  8.91E-04,  avg # of iterations =  1.1

     total energy              =   -2243.23051784 Ry
     Harris-Foulkes estimate   =   -2243.52353035 Ry
     estimated scf accuracy    <       0.43891416 Ry

[...]

     total energy              =   -2243.36997082 Ry
     Harris-Foulkes estimate   =   -2243.36998038 Ry
     estimated scf accuracy    <       0.00002406 Ry

     iteration #  7     ecut=    50.00 Ry     beta=0.70
     Davidson diagonalization with overlap
     ethr =  5.01E-08,  avg # of iterations =  3.0

     End of self-consistent calculation

          k = 0.0000 0.0000 0.0000 (  6031 PWs)   bands (ev):

   -35.1031 -35.1031 -35.0535 -35.0535 -35.0470 -35.0470 -35.0391 -35.0391
   -15.8776 -15.8776 -15.8726 -15.8726 -15.8650 -15.8650 -15.6636 -15.6636
   -11.7645 -11.7645 -11.7643 -11.7643 -11.7386 -11.7386 -11.5073 -11.5073
   -11.4782 -11.4782 -11.4778 -11.4778 -11.2883 -11.2883 -11.2497 -11.2497
     2.3901   2.3901   4.7097   4.7097   4.7109   4.7109   5.0942   5.0942
     7.4377   7.4377   7.4378   7.4378   7.4431   7.4431   8.9649   8.9649
     9.9497   9.9497   9.9505   9.9505  10.5003  10.5003  10.5138  10.5138
    10.6790  10.6790

[...]

          k =-0.5000-0.5000-0.5000 (  6008 PWs)   bands (ev):

[...]

          k = 0.5000-0.2500-0.2500 (  6004 PWs)   bands (ev):

[...]

          k =-0.5000 0.2500 0.5000 (  6000 PWs)   bands (ev):

   -35.0706 -35.0706 -35.0608 -35.0608 -35.0608 -35.0608 -35.0502 -35.0502
   -15.8350 -15.8348 -15.8288 -15.8287 -15.8208 -15.8207 -15.8141 -15.8139
   -11.7081 -11.7077 -11.7050 -11.7044 -11.6834 -11.6826 -11.6794 -11.6791
   -11.3896 -11.3887 -11.3884 -11.3868 -11.3824 -11.3806 -11.3803 -11.3796
     3.8897   3.8905   3.9029   3.9036   4.6599   4.6607   4.6732   4.6741
     8.2916   8.2923   8.2933   8.2939   9.4258   9.4265   9.4276   9.4282
     9.9461   9.9470   9.9474   9.9482  10.1195  10.1202  10.1251  10.1257
    10.8915  10.8934

     the Fermi energy is     9.3051 ev

!    total energy              =   -2243.36997519 Ry
     Harris-Foulkes estimate   =   -2243.36997514 Ry
     estimated scf accuracy    <       0.00000012 Ry

     total all-electron energy =    -90247.713369 Ry

     The total energy is the sum of the following terms:

     one-electron contribution =     -57.49244423 Ry
     hartree contribution      =      46.18571827 Ry
     xc contribution           =    -254.07701985 Ry
     ewald contribution        =    -229.92053629 Ry
     one-center paw contrib.   =   -1748.06145194 Ry
     smearing contrib. (-TS)   =      -0.00424117 Ry

     convergence has been achieved in   7 iterations

     Forces acting on atoms (cartesian axes, Ry/au):

     atom    1 type  1   force =     0.03287324    0.00091580    0.00091580
     atom    2 type  1   force =     0.03397686    0.00080750    0.00080750
     atom    3 type  1   force =    -0.03344678    0.00024872    0.00027659
     atom    4 type  1   force =    -0.03344678    0.00027659    0.00024872
     atom    5 type  2   force =     0.00012400   -0.00236014   -0.00236014
     atom    6 type  2   force =    -0.00002843   -0.00008907    0.00014458
     atom    7 type  2   force =    -0.00002366    0.00005603    0.00005603
     atom    8 type  2   force =    -0.00002843    0.00014458   -0.00008907

     Total force =     0.066985     Total SCF correction =     0.000109

     Writing output data file 2394.save

     General routines

     Parallel routines

   This run was terminated on:  13:46: 5  30Nov2022

   JOB DONE.
Removing 2394 from /home/shaharpit/tmp