     Program PWSCF v.6.1 (svn rev. 13369) starts on 30Nov2022 at 13:42:28

     Current dimensions of program PWSCF are:
     Max number of different atomic species (ntypx) = 10
     Max number of k-points (npk) =  40000
     Max angular momentum in pseudopotentials (lmaxx) =  3
               file Gd.rel-pbe-spdn-kjpaw_psl.1.0.0.UPF: wavefunction(s)  5P 5P renormalized
               file H.pbe-kjpaw_psl.0.1.UPF: wavefunction(s)  1S renormalized

     Subspace diagonalization in iterative solution of the eigenvalue problem:
     a serial algorithm will be used

     bravais-lattice index     =            0
     lattice parameter (alat)  =      10.0212  a.u.
     unit-cell volume          =    1006.3788 (a.u.)^3
     number of atoms/cell      =           12
     number of atomic types    =            2
     number of electrons       =        52.00
     number of Kohn-Sham states=           62
     kinetic-energy cutoff     =      50.0000  Ry
     charge density cutoff     =     200.0000  Ry
     convergence threshold     =      1.0E-06
     mixing beta               =       0.7000
     number of iterations used =            8  plain     mixing
     Exchange-correlation      =  SLA  PW   PBX  PBC ( 1  4  3  4 0 0)
     Non magnetic calculation with spin-orbit

     celldm(1)=  10.021218  celldm(2)=   0.000000  celldm(3)=   0.000000
     celldm(4)=   0.000000  celldm(5)=   0.000000  celldm(6)=   0.000000

     crystal axes: (cart. coord. in units of alat)
               a(1) = (   1.000000   0.000000   0.000000 )
               a(2) = (   0.000000   1.000000   0.000000 )
               a(3) = (   0.000000   0.000000   1.000000 )

     reciprocal axes: (cart. coord. in units 2 pi/alat)
               b(1) = (  1.000000  0.000000  0.000000 )
               b(2) = (  0.000000  1.000000  0.000000 )
               b(3) = (  0.000000  0.000000  1.000000 )

     PseudoPot. # 1 for Gd read from file:
     /home/shaharpit/MeamGdH/dft/qe_potentials/Gd.rel-pbe-spdn-kjpaw_psl.1.0.0.UPF
     MD5 check sum: cf50ec46d1536b4a0251694df1946a53
     Pseudo is Projector augmented-wave + core cor, Zval = 11.0
     Generated using "atomic" code by A. Dal Corso  v.6.2.2
     Shape of augmentation charge: PSQ
     Using radial grid of 1263 points, 10 beta functions with:
                l(1) =   0
                l(2) =   0
                l(3) =   1
                l(4) =   1
                l(5) =   1
                l(6) =   1
                l(7) =   2
                l(8) =   2
                l(9) =   2
               l(10) =   2
     Q(r) pseudized with 0 coefficients

     PseudoPot. # 2 for  H read from file:
     /home/shaharpit/MeamGdH/dft/qe_potentials/H.pbe-kjpaw_psl.0.1.UPF
     MD5 check sum: fbb168fef676c0aaadbafd73f5b1efa8
     Pseudo is Projector augmented-wave, Zval =  1.0
     Generated using "atomic" code by A. Dal Corso  v.5.0.2 svn rev. 9415
     Shape of augmentation charge: PSQ
     Using radial grid of  929 points,  2 beta functions with:
                l(1) =   0
                l(2) =   0
     Q(r) pseudized with 0 coefficients

     atomic species   valence    mass     pseudopotential
        Gd            11.00   157.25000     Gd( 1.00)
        H              1.00     1.00794      H( 1.00)

      2 Sym. Ops. (no inversion) found

   Cartesian axes

     site n.     atom                  positions (alat units)
         1           Gd  tau(   1) = (   0.0000000   0.0000000   0.0000000  )
         2           Gd  tau(   2) = (   0.0000000   0.5000000   0.5000000  )
         3           Gd  tau(   3) = (   0.5000000   0.0000000   0.5000000  )
         4           Gd  tau(   4) = (   0.5000000   0.5000000   0.0000000  )
         5           H   tau(   5) = (   0.2500000   0.7539000   0.7539000  )
         6           H   tau(   6) = (   0.2500000   0.7501000   0.2500000  )
         7           H   tau(   7) = (   0.2500000   0.2500000   0.2500000  )
         8           H   tau(   8) = (   0.2500000   0.2500000   0.7501000  )
         9           H   tau(   9) = (   0.7501000   0.2500000   0.7501000  )
        10           H   tau(  10) = (   0.7501000   0.2500000   0.2500000  )
        11           H   tau(  11) = (   0.7501000   0.7501000   0.2500000  )
        12           H   tau(  12) = (   0.7501000   0.7501000   0.7501000  )

     number of k points=    24  gaussian smearing, width (Ry)=  0.0100
                       cart. coord. in units 2pi/alat
        k(    1) = (   0.0000000   0.0000000   0.0000000), wk =   0.0156250
        k(    2) = (   0.0000000   0.0000000   0.2500000), wk =   0.0625000
        k(    3) = (   0.0000000   0.0000000  -0.5000000), wk =   0.0312500
        k(    4) = (   0.0000000   0.2500000   0.2500000), wk =   0.0312500
        k(    5) = (   0.0000000   0.2500000  -0.5000000), wk =   0.0625000
        k(    6) = (   0.0000000  -0.5000000  -0.5000000), wk =   0.0156250
        k(    7) = (   0.2500000   0.2500000   0.2500000), wk =   0.0312500
        k(    8) = (   0.2500000   0.2500000  -0.5000000), wk =   0.0625000
        k(    9) = (   0.2500000  -0.5000000  -0.5000000), wk =   0.0312500
        k(   10) = (  -0.5000000  -0.5000000  -0.5000000), wk =   0.0156250
        k(   11) = (   0.2500000   0.0000000   0.0000000), wk =   0.0312500
        k(   12) = (  -0.5000000   0.0000000   0.0000000), wk =   0.0156250
        k(   13) = (   0.0000000   0.2500000  -0.2500000), wk =   0.0312500
        k(   14) = (   0.2500000   0.0000000  -0.2500000), wk =   0.0625000
        k(   15) = (  -0.2500000   0.0000000  -0.2500000), wk =   0.0625000
        k(   16) = (   0.2500000   0.0000000   0.5000000), wk =   0.0625000
        k(   17) = (  -0.5000000  -0.2500000   0.0000000), wk =   0.0625000
        k(   18) = (  -0.5000000   0.0000000   0.5000000), wk =   0.0312500
        k(   19) = (  -0.2500000   0.2500000  -0.2500000), wk =   0.0625000
        k(   20) = (   0.2500000  -0.2500000  -0.2500000), wk =   0.0312500
        k(   21) = (  -0.2500000   0.2500000   0.5000000), wk =   0.0625000
        k(   22) = (  -0.5000000  -0.2500000   0.2500000), wk =   0.0312500
        k(   23) = (   0.5000000  -0.2500000  -0.2500000), wk =   0.0312500
        k(   24) = (  -0.5000000   0.2500000   0.5000000), wk =   0.0625000

     Check: negative/imaginary core charge=   -0.000002    0.000000

     Initial potential from superposition of free atoms

     starting charge   51.92374, renormalised to   52.00000
     Starting wfc are  120 randomized atomic wfcs
     Checking if some PAW data can be deallocated...

     Self-consistent Calculation

     iteration #  1     ecut=    50.00 Ry     beta=0.70
     Davidson diagonalization with overlap
     ethr =  1.00E-02,  avg # of iterations =  2.0

     total energy              =   -2248.31961136 Ry
     Harris-Foulkes estimate   =   -2248.64579446 Ry
     estimated scf accuracy    <       0.57574973 Ry

[...]

     total energy              =   -2248.42538077 Ry
     Harris-Foulkes estimate   =   -2248.42538127 Ry
     estimated scf accuracy    <       0.00000582 Ry

     iteration #  6     ecut=    50.00 Ry     beta=0.70
     Davidson diagonalization with overlap
     ethr =  1.12E-08,  avg # of iterations =  3.0

     End of self-consistent calculation

          k = 0.0000 0.0000 0.0000 (  6031 PWs)   bands (ev):

   -34.5743 -34.5743 -34.5215 -34.5215 -34.5142 -34.5142 -34.5040 -34.5040
   -15.3840 -15.3840 -15.3769 -15.3769 -15.3689 -15.3689 -15.1492 -15.1492
   -11.3152 -11.3152 -11.3120 -11.3120 -11.3092 -11.3092 -11.0026 -11.0026
   -10.9988 -10.9988 -10.9953 -10.9953 -10.7679 -10.7679 -10.7676 -10.7676
     1.7452   1.7452   4.4814   4.4814   4.4816   4.4816   4.4818   4.4818
     6.0828   6.0828   6.0850   6.0850   6.0869   6.0869   7.6393   7.6393
     7.6399   7.6399   7.6406   7.6406   8.1553   8.1553  10.6299  10.6299
    10.6315  10.6315  10.7906  10.7906  13.2273  13.2276

[...]

          k =-0.5000-0.5000-0.5000 (  6008 PWs)   bands (ev):

[...]

          k = 0.5000-0.2500-0.2500 (  6004 PWs)   bands (ev):

[...]

          k =-0.5000 0.2500 0.5000 (  6000 PWs)   bands (ev):

   -34.5401 -34.5401 -34.5289 -34.5289 -34.5289 -34.5289 -34.5156 -34.5156
   -15.3356 -15.3356 -15.3257 -15.3257 -15.3256 -15.3256 -15.3139 -15.3139
   -11.2403 -11.2402 -11.2398 -11.2395 -11.2326 -11.2322 -11.2318 -11.2317
   -10.8992 -10.8988 -10.8987 -10.8987 -10.8898 -10.8898 -10.8897 -10.8894
     3.8835   3.8842   3.8943   3.8943   3.8946   3.8947   3.9041   3.9048
     5.8759   5.8764   5.8848   5.8849   5.8852   5.8853   5.8947   5.8953
    10.1813  10.1817  10.1840  10.1841  10.1864  10.1866  10.1887  10.1890
    11.1075  11.1080  11.1086  11.1092  11.1099  11.1106

     the Fermi energy is     9.4735 ev

!    total energy              =   -2248.42538263 Ry
     Harris-Foulkes estimate   =   -2248.42538296 Ry
     estimated scf accuracy    <       0.00000076 Ry

     total all-electron energy =    -90252.768759 Ry

     The total energy is the sum of the following terms:

     one-electron contribution =     -47.14994217 Ry
     hartree contribution      =      44.09148876 Ry
     xc contribution           =    -257.25429045 Ry
     ewald contribution        =    -240.05108433 Ry
     one-center paw contrib.   =   -1748.05973058 Ry
     smearing contrib. (-TS)   =      -0.00182386 Ry

     convergence has been achieved in   6 iterations

     Forces acting on atoms (cartesian axes, Ry/au):

     atom    1 type  1   force =    -0.00027537    0.00079083    0.00079083
     atom    2 type  1   force =     0.00030511    0.00071110    0.00071110
     atom    3 type  1   force =     0.00003071    0.00042587    0.00048390
     atom    4 type  1   force =     0.00003071    0.00048390    0.00042587
     atom    5 type  2   force =     0.00016059   -0.00284746   -0.00284746
     atom    6 type  2   force =     0.00000057   -0.00007427    0.00032425
     atom    7 type  2   force =     0.00000379    0.00004635    0.00004635
     atom    8 type  2   force =     0.00000057    0.00032425   -0.00007427
     atom    9 type  2   force =    -0.00006334    0.00004654   -0.00012434
     atom   10 type  2   force =    -0.00006950    0.00029169    0.00029169
     atom   11 type  2   force =    -0.00006334   -0.00012434    0.00004654
     atom   12 type  2   force =    -0.00006050   -0.00007447   -0.00007447

     Total force =     0.004468     Total SCF correction =     0.000571
     SCF correction compared to forces is large: reduce conv_thr to get better values

     Writing output data file 2385.save

     General routines

     Parallel routines

   This run was terminated on:  13:46:42  30Nov2022

   JOB DONE.
Removing 2385 from /home/shaharpit/tmp