     Program PWSCF v.6.1 (svn rev. 13369) starts on 30Nov2022 at 13:42:28

     Current dimensions of program PWSCF are:
     Max number of different atomic species (ntypx) = 10
     Max number of k-points (npk) =  40000
     Max angular momentum in pseudopotentials (lmaxx) =  3
               file Gd.rel-pbe-spdn-kjpaw_psl.1.0.0.UPF: wavefunction(s)  5P 5P renormalized
               file H.pbe-kjpaw_psl.0.1.UPF: wavefunction(s)  1S renormalized

     Subspace diagonalization in iterative solution of the eigenvalue problem:
     a serial algorithm will be used

     bravais-lattice index     =            0
     lattice parameter (alat)  =      10.3447  a.u.
     unit-cell volume          =    1107.0280 (a.u.)^3
     number of atoms/cell      =           12
     number of atomic types    =            2
     number of electrons       =        52.00
     number of Kohn-Sham states=           62
     kinetic-energy cutoff     =      50.0000  Ry
     charge density cutoff     =     200.0000  Ry
     convergence threshold     =      1.0E-06
     mixing beta               =       0.7000
     number of iterations used =            8  plain     mixing
     Exchange-correlation      =  SLA  PW   PBX  PBC ( 1  4  3  4 0 0)
     Non magnetic calculation with spin-orbit

     celldm(1)=  10.344739  celldm(2)=   0.000000  celldm(3)=   0.000000
     celldm(4)=   0.000000  celldm(5)=   0.000000  celldm(6)=   0.000000

     crystal axes: (cart. coord. in units of alat)
               a(1) = (   1.000000   0.000000   0.000000 )
               a(2) = (   0.000000   1.000000   0.000000 )
               a(3) = (   0.000000   0.000000   1.000000 )

     reciprocal axes: (cart. coord. in units 2 pi/alat)
               b(1) = (  1.000000  0.000000  0.000000 )
               b(2) = (  0.000000  1.000000  0.000000 )
               b(3) = (  0.000000  0.000000  1.000000 )

     PseudoPot. # 1 for Gd read from file:
     /home/shaharpit/MeamGdH/dft/qe_potentials/Gd.rel-pbe-spdn-kjpaw_psl.1.0.0.UPF
     MD5 check sum: cf50ec46d1536b4a0251694df1946a53
     Pseudo is Projector augmented-wave + core cor, Zval = 11.0
     Generated using "atomic" code by A. Dal Corso  v.6.2.2
     Shape of augmentation charge: PSQ
     Using radial grid of 1263 points, 10 beta functions with:
                l(1) =   0
                l(2) =   0
                l(3) =   1
                l(4) =   1
                l(5) =   1
                l(6) =   1
                l(7) =   2
                l(8) =   2
                l(9) =   2
               l(10) =   2
     Q(r) pseudized with 0 coefficients

     PseudoPot. # 2 for  H read from file:
     /home/shaharpit/MeamGdH/dft/qe_potentials/H.pbe-kjpaw_psl.0.1.UPF
     MD5 check sum: fbb168fef676c0aaadbafd73f5b1efa8
     Pseudo is Projector augmented-wave, Zval =  1.0
     Generated using "atomic" code by A. Dal Corso  v.5.0.2 svn rev. 9415
     Shape of augmentation charge: PSQ
     Using radial grid of  929 points,  2 beta functions with:
                l(1) =   0
                l(2) =   0
     Q(r) pseudized with 0 coefficients

     atomic species   valence    mass     pseudopotential
        Gd            11.00   157.25000     Gd( 1.00)
        H              1.00     1.00794      H( 1.00)

      2 Sym. Ops. (no inversion) found

   Cartesian axes

     site n.     atom                  positions (alat units)
         1           Gd  tau(   1) = (   0.0000000   0.0000000   0.0000000  )
         2           Gd  tau(   2) = (   0.0000000   0.5000000   0.5000000  )
         3           Gd  tau(   3) = (   0.5000000   0.0000000   0.5000000  )
         4           Gd  tau(   4) = (   0.5000000   0.5000000   0.0000000  )
         5           H   tau(   5) = (   0.2500000   0.7539000   0.7539000  )
         6           H   tau(   6) = (   0.2500000   0.7501000   0.2500000  )
         7           H   tau(   7) = (   0.2500000   0.2500000   0.2500000  )
         8           H   tau(   8) = (   0.2500000   0.2500000   0.7501000  )
         9           H   tau(   9) = (   0.7501000   0.2500000   0.7501000  )
        10           H   tau(  10) = (   0.7501000   0.2500000   0.2500000  )
        11           H   tau(  11) = (   0.7501000   0.7501000   0.2500000  )
        12           H   tau(  12) = (   0.7501000   0.7501000   0.7501000  )

     number of k points=    24  gaussian smearing, width (Ry)=  0.0100
                       cart. coord. in units 2pi/alat
        k(    1) = (   0.0000000   0.0000000   0.0000000), wk =   0.0156250
        k(    2) = (   0.0000000   0.0000000   0.2500000), wk =   0.0625000
        k(    3) = (   0.0000000   0.0000000  -0.5000000), wk =   0.0312500
        k(    4) = (   0.0000000   0.2500000   0.2500000), wk =   0.0312500
        k(    5) = (   0.0000000   0.2500000  -0.5000000), wk =   0.0625000
        k(    6) = (   0.0000000  -0.5000000  -0.5000000), wk =   0.0156250
        k(    7) = (   0.2500000   0.2500000   0.2500000), wk =   0.0312500
        k(    8) = (   0.2500000   0.2500000  -0.5000000), wk =   0.0625000
        k(    9) = (   0.2500000  -0.5000000  -0.5000000), wk =   0.0312500
        k(   10) = (  -0.5000000  -0.5000000  -0.5000000), wk =   0.0156250
        k(   11) = (   0.2500000   0.0000000   0.0000000), wk =   0.0312500
        k(   12) = (  -0.5000000   0.0000000   0.0000000), wk =   0.0156250
        k(   13) = (   0.0000000   0.2500000  -0.2500000), wk =   0.0312500
        k(   14) = (   0.2500000   0.0000000  -0.2500000), wk =   0.0625000
        k(   15) = (  -0.2500000   0.0000000  -0.2500000), wk =   0.0625000
        k(   16) = (   0.2500000   0.0000000   0.5000000), wk =   0.0625000
        k(   17) = (  -0.5000000  -0.2500000   0.0000000), wk =   0.0625000
        k(   18) = (  -0.5000000   0.0000000   0.5000000), wk =   0.0312500
        k(   19) = (  -0.2500000   0.2500000  -0.2500000), wk =   0.0625000
        k(   20) = (   0.2500000  -0.2500000  -0.2500000), wk =   0.0312500
        k(   21) = (  -0.2500000   0.2500000   0.5000000), wk =   0.0625000
        k(   22) = (  -0.5000000  -0.2500000   0.2500000), wk =   0.0312500
        k(   23) = (   0.5000000  -0.2500000  -0.2500000), wk =   0.0312500
        k(   24) = (  -0.5000000   0.2500000   0.5000000), wk =   0.0625000

     Check: negative/imaginary core charge=   -0.000002    0.000000

     Initial potential from superposition of free atoms

     starting charge   51.92374, renormalised to   52.00000
     Starting wfc are  120 randomized atomic wfcs
     Checking if some PAW data can be deallocated...

     Self-consistent Calculation

     iteration #  1     ecut=    50.00 Ry     beta=0.70
     Davidson diagonalization with overlap
     ethr =  1.00E-02,  avg # of iterations =  2.0

     total energy              =   -2248.28132675 Ry
     Harris-Foulkes estimate   =   -2248.60816876 Ry
     estimated scf accuracy    <       0.56658494 Ry

[...]

     total energy              =   -2248.39319946 Ry
     Harris-Foulkes estimate   =   -2248.39319981 Ry
     estimated scf accuracy    <       0.00000113 Ry

     iteration #  7     ecut=    50.00 Ry     beta=0.70
     Davidson diagonalization with overlap
     ethr =  2.17E-09,  avg # of iterations =  2.8

     End of self-consistent calculation

          k = 0.0000 0.0000 0.0000 (  6619 PWs)   bands (ev):

   -35.9215 -35.9215 -35.8894 -35.8894 -35.8837 -35.8837 -35.8734 -35.8734
   -16.6852 -16.6852 -16.6794 -16.6794 -16.6713 -16.6713 -16.5216 -16.5216
   -12.5360 -12.5360 -12.5325 -12.5325 -12.5300 -12.5300 -12.3142 -12.3142
   -12.3104 -12.3104 -12.3075 -12.3075 -12.1438 -12.1438 -12.1432 -12.1432
     1.0261   1.0261   3.7665   3.7665   3.7666   3.7666   3.7669   3.7669
     4.9246   4.9246   4.9265   4.9265   4.9281   4.9281   6.8142   6.8142
     6.8154   6.8154   6.8154   6.8154   7.1269   7.1269   9.5406   9.5406
     9.5420   9.5421   9.7005   9.7005  11.8562  11.8565

[...]

          k =-0.5000-0.5000-0.5000 (  6704 PWs)   bands (ev):

[...]

          k = 0.5000-0.2500-0.2500 (  6608 PWs)   bands (ev):

[...]

          k =-0.5000 0.2500 0.5000 (  6572 PWs)   bands (ev):

   -35.9020 -35.9020 -35.8929 -35.8929 -35.8929 -35.8929 -35.8799 -35.8799
   -16.6514 -16.6514 -16.6432 -16.6432 -16.6431 -16.6431 -16.6314 -16.6313
   -12.4816 -12.4816 -12.4815 -12.4813 -12.4742 -12.4740 -12.4739 -12.4739
   -12.2393 -12.2391 -12.2387 -12.2387 -12.2307 -12.2307 -12.2304 -12.2301
     3.0815   3.0821   3.0919   3.0919   3.0922   3.0923   3.1015   3.1021
     4.8395   4.8400   4.8488   4.8488   4.8491   4.8491   4.8589   4.8594
     9.1493   9.1497   9.1520   9.1521   9.1544   9.1545   9.1564   9.1568
     9.9891   9.9891   9.9898   9.9904   9.9907   9.9915

     the Fermi energy is     8.5059 ev

!    total energy              =   -2248.39319966 Ry
     Harris-Foulkes estimate   =   -2248.39319969 Ry
     estimated scf accuracy    <       0.00000003 Ry

     total all-electron energy =    -90252.736576 Ry

     The total energy is the sum of the following terms:

     one-electron contribution =     -57.97218131 Ry
     hartree contribution      =      47.01535733 Ry
     xc contribution           =    -256.84455409 Ry
     ewald contribution        =    -232.54373245 Ry
     one-center paw contrib.   =   -1748.04625537 Ry
     smearing contrib. (-TS)   =      -0.00183377 Ry

     convergence has been achieved in   7 iterations

     Forces acting on atoms (cartesian axes, Ry/au):

     atom    1 type  1   force =    -0.00018792    0.00058342    0.00058342
     atom    2 type  1   force =     0.00010488    0.00048023    0.00048023
     atom    3 type  1   force =     0.00007240    0.00038273    0.00039268
     atom    4 type  1   force =     0.00007240    0.00039268    0.00038273
     atom    5 type  2   force =     0.00014997   -0.00232063   -0.00232063
     atom    6 type  2   force =     0.00002369   -0.00004741    0.00035741
     atom    7 type  2   force =     0.00002581    0.00003703    0.00003703
     atom    8 type  2   force =     0.00002369    0.00035741   -0.00004741
     atom    9 type  2   force =    -0.00007056    0.00003728   -0.00008210
     atom   10 type  2   force =    -0.00007473    0.00022669    0.00022669
     atom   11 type  2   force =    -0.00007056   -0.00008210    0.00003728
     atom   12 type  2   force =    -0.00006908   -0.00004735   -0.00004735

     Total force =     0.003606     Total SCF correction =     0.000280

     Writing output data file 2386.save

     General routines

     Parallel routines

   This run was terminated on:  13:45:53  30Nov2022

   JOB DONE.
Removing 2386 from /home/shaharpit/tmp