     Program PWSCF v.6.1 (svn rev. 13369) starts on 16Nov2022 at 10:49:59

     Current dimensions of program PWSCF are:
     Max number of different atomic species (ntypx) = 10
     Max number of k-points (npk) =  40000
     Max angular momentum in pseudopotentials (lmaxx) =  3
               file Gd.rel-pbe-spdn-kjpaw_psl.1.0.0.UPF: wavefunction(s)  5P 5P renormalized
               file H.pbe-kjpaw_psl.0.1.UPF: wavefunction(s)  1S renormalized

     Subspace diagonalization in iterative solution of the eigenvalue problem:
     a serial algorithm will be used

     bravais-lattice index     =            0
     lattice parameter (alat)  =       9.6754  a.u.
     unit-cell volume          =     905.7461 (a.u.)^3
     number of atoms/cell      =           12
     number of atomic types    =            2
     number of electrons       =        52.00
     number of Kohn-Sham states=           62
     kinetic-energy cutoff     =      50.0000  Ry
     charge density cutoff     =     200.0000  Ry
     convergence threshold     =      1.0E-06
     mixing beta               =       0.7000
     number of iterations used =            8  plain     mixing
     Exchange-correlation      =  SLA  PW   PBX  PBC ( 1  4  3  4 0 0)
     Non magnetic calculation with spin-orbit

     celldm(1)=   9.675398  celldm(2)=   0.000000  celldm(3)=   0.000000
     celldm(4)=   0.000000  celldm(5)=   0.000000  celldm(6)=   0.000000

     crystal axes: (cart. coord. in units of alat)
               a(1) = (   1.000000   0.000000   0.000000 )
               a(2) = (   0.000000   1.000000   0.000000 )
               a(3) = (   0.000000   0.000000   1.000000 )

     reciprocal axes: (cart. coord. in units 2 pi/alat)
               b(1) = (  1.000000  0.000000  0.000000 )
               b(2) = (  0.000000  1.000000  0.000000 )
               b(3) = (  0.000000  0.000000  1.000000 )

     PseudoPot. # 1 for Gd read from file:
     /home/shaharpit/MeamGdH/dft/qe_potentials/Gd.rel-pbe-spdn-kjpaw_psl.1.0.0.UPF
     MD5 check sum: cf50ec46d1536b4a0251694df1946a53
     Pseudo is Projector augmented-wave + core cor, Zval = 11.0
     Generated using "atomic" code by A. Dal Corso  v.6.2.2
     Shape of augmentation charge: PSQ
     Using radial grid of 1263 points, 10 beta functions with:
                l(1) =   0
                l(2) =   0
                l(3) =   1
                l(4) =   1
                l(5) =   1
                l(6) =   1
                l(7) =   2
                l(8) =   2
                l(9) =   2
               l(10) =   2
     Q(r) pseudized with 0 coefficients

     PseudoPot. # 2 for  H read from file:
     /home/shaharpit/MeamGdH/dft/qe_potentials/H.pbe-kjpaw_psl.0.1.UPF
     MD5 check sum: fbb168fef676c0aaadbafd73f5b1efa8
     Pseudo is Projector augmented-wave, Zval =  1.0
     Generated using "atomic" code by A. Dal Corso  v.5.0.2 svn rev. 9415
     Shape of augmentation charge: PSQ
     Using radial grid of  929 points,  2 beta functions with:
                l(1) =   0
                l(2) =   0
     Q(r) pseudized with 0 coefficients

     atomic species   valence    mass     pseudopotential
        Gd            11.00   157.25000     Gd( 1.00)
        H              1.00     1.00794      H( 1.00)

      2 Sym. Ops. (no inversion) found

   Cartesian axes

     site n.     atom                  positions (alat units)
         1           Gd  tau(   1) = (   0.0000000   0.0000000   0.0000000  )
         2           Gd  tau(   2) = (   0.0000000   0.5000000   0.5000000  )
         3           Gd  tau(   3) = (   0.5000000   0.0000000   0.5000000  )
         4           Gd  tau(   4) = (   0.5000000   0.5000000   0.0000000  )
         5           H   tau(   5) = (   0.2500000   0.7539000   0.7539000  )
         6           H   tau(   6) = (   0.2500000   0.7501000   0.2500000  )
         7           H   tau(   7) = (   0.2500000   0.2500000   0.2500000  )
         8           H   tau(   8) = (   0.2500000   0.2500000   0.7501000  )
         9           H   tau(   9) = (   0.7501000   0.2500000   0.7501000  )
        10           H   tau(  10) = (   0.7501000   0.2500000   0.2500000  )
        11           H   tau(  11) = (   0.7501000   0.7501000   0.2500000  )
        12           H   tau(  12) = (   0.7501000   0.7501000   0.7501000  )

     number of k points=    24  gaussian smearing, width (Ry)=  0.0100
                       cart. coord. in units 2pi/alat
        k(    1) = (   0.0000000   0.0000000   0.0000000), wk =   0.0156250
        k(    2) = (   0.0000000   0.0000000   0.2500000), wk =   0.0625000
        k(    3) = (   0.0000000   0.0000000  -0.5000000), wk =   0.0312500
        k(    4) = (   0.0000000   0.2500000   0.2500000), wk =   0.0312500
        k(    5) = (   0.0000000   0.2500000  -0.5000000), wk =   0.0625000
        k(    6) = (   0.0000000  -0.5000000  -0.5000000), wk =   0.0156250
        k(    7) = (   0.2500000   0.2500000   0.2500000), wk =   0.0312500
        k(    8) = (   0.2500000   0.2500000  -0.5000000), wk =   0.0625000
        k(    9) = (   0.2500000  -0.5000000  -0.5000000), wk =   0.0312500
        k(   10) = (  -0.5000000  -0.5000000  -0.5000000), wk =   0.0156250
        k(   11) = (   0.2500000   0.0000000   0.0000000), wk =   0.0312500
        k(   12) = (  -0.5000000   0.0000000   0.0000000), wk =   0.0156250
        k(   13) = (   0.0000000   0.2500000  -0.2500000), wk =   0.0312500
        k(   14) = (   0.2500000   0.0000000  -0.2500000), wk =   0.0625000
        k(   15) = (  -0.2500000   0.0000000  -0.2500000), wk =   0.0625000
        k(   16) = (   0.2500000   0.0000000   0.5000000), wk =   0.0625000
        k(   17) = (  -0.5000000  -0.2500000   0.0000000), wk =   0.0625000
        k(   18) = (  -0.5000000   0.0000000   0.5000000), wk =   0.0312500
        k(   19) = (  -0.2500000   0.2500000  -0.2500000), wk =   0.0625000
        k(   20) = (   0.2500000  -0.2500000  -0.2500000), wk =   0.0312500
        k(   21) = (  -0.2500000   0.2500000   0.5000000), wk =   0.0625000
        k(   22) = (  -0.5000000  -0.2500000   0.2500000), wk =   0.0312500
        k(   23) = (   0.5000000  -0.2500000  -0.2500000), wk =   0.0312500
        k(   24) = (  -0.5000000   0.2500000   0.5000000), wk =   0.0625000

     Initial potential from superposition of free atoms

     starting charge   51.92374, renormalised to   52.00000
     Starting wfc are  120 randomized atomic wfcs
     Checking if some PAW data can be deallocated...

     Self-consistent Calculation

     iteration #  1     ecut=    50.00 Ry     beta=0.70
     Davidson diagonalization with overlap
     ethr =  1.00E-02,  avg # of iterations =  2.2

     total energy              =   -2248.30453611 Ry
     Harris-Foulkes estimate   =   -2248.63555489 Ry
     estimated scf accuracy    <       0.59581841 Ry

[...]

     total energy              =   -2248.40541134 Ry
     Harris-Foulkes estimate   =   -2248.40541231 Ry
     estimated scf accuracy    <       0.00000440 Ry

     iteration #  6     ecut=    50.00 Ry     beta=0.70
     Davidson diagonalization with overlap
     ethr =  8.45E-09,  avg # of iterations =  2.9

     End of self-consistent calculation

          k = 0.0000 0.0000 0.0000 (  5449 PWs)   bands (ev):

   -32.9960 -32.9960 -32.9053 -32.9053 -32.8980 -32.8980 -32.8884 -32.8884
   -13.8665 -13.8665 -13.8601 -13.8601 -13.8526 -13.8526 -13.5214 -13.5214
    -9.9082  -9.9082  -9.9056  -9.9056  -9.9033  -9.9033  -9.4618  -9.4618
    -9.4582  -9.4582  -9.4549  -9.4549  -9.1326  -9.1326  -9.1324  -9.1324
     2.6659   2.6659   5.3422   5.3422   5.3424   5.3424   5.3427   5.3427
     7.5628   7.5628   7.5656   7.5656   7.5677   7.5677   8.6235   8.6235
     8.6242   8.6242   8.6252   8.6252   9.3881   9.3881  11.9275  11.9275
    11.9292  11.9292  12.0900  12.0900  14.8646  14.8648

[...]

          k =-0.5000-0.5000-0.5000 (  5400 PWs)   bands (ev):

[...]

          k = 0.5000-0.2500-0.2500 (  5420 PWs)   bands (ev):

[...]

          k =-0.5000 0.2500 0.5000 (  5452 PWs)   bands (ev):

   -32.9331 -32.9331 -32.9223 -32.9223 -32.9223 -32.9223 -32.9094 -32.9094
   -13.7956 -13.7956 -13.7864 -13.7864 -13.7863 -13.7862 -13.7754 -13.7754
    -9.8031  -9.8031  -9.8022  -9.8018  -9.7966  -9.7961  -9.7951  -9.7951
    -9.3163  -9.3160  -9.3159  -9.3157  -9.3077  -9.3073  -9.3073  -9.3071
     4.8721   4.8730   4.8832   4.8832   4.8835   4.8836   4.8932   4.8940
     7.1894   7.1901   7.1978   7.1979   7.1982   7.1983   7.2069   7.2076
    11.4172  11.4175  11.4199  11.4200  11.4223  11.4225  11.4247  11.4250
    12.4381  12.4387  12.4396  12.4400  12.4409  12.4415

     the Fermi energy is    10.6395 ev

!    total energy              =   -2248.40541304 Ry
     Harris-Foulkes estimate   =   -2248.40541318 Ry
     estimated scf accuracy    <       0.00000062 Ry

     total all-electron energy =    -90252.748790 Ry

     The total energy is the sum of the following terms:

     one-electron contribution =     -34.84972464 Ry
     hartree contribution      =      40.90403913 Ry
     xc contribution           =    -257.74969690 Ry
     ewald contribution        =    -248.63103520 Ry
     one-center paw contrib.   =   -1748.07717467 Ry
     smearing contrib. (-TS)   =      -0.00182076 Ry

     convergence has been achieved in   6 iterations

     Writing output data file 2310.save

     General routines

     Parallel routines

   This run was terminated on:  10:51:34  16Nov2022

   JOB DONE.
Removing 2310 from /home/shaharpit/tmp