     Program PWSCF v.6.1 (svn rev. 13369) starts on 16Nov2022 at 10:56:21

     Current dimensions of program PWSCF are:
     Max number of different atomic species (ntypx) = 10
     Max number of k-points (npk) =  40000
     Max angular momentum in pseudopotentials (lmaxx) =  3
               file Gd.rel-pbe-spdn-kjpaw_psl.1.0.0.UPF: wavefunction(s)  5P 5P renormalized
               file H.pbe-kjpaw_psl.0.1.UPF: wavefunction(s)  1S renormalized

     Subspace diagonalization in iterative solution of the eigenvalue problem:
     a serial algorithm will be used

     bravais-lattice index     =            0
     lattice parameter (alat)  =      13.6588  a.u.
     unit-cell volume          =     880.8636 (a.u.)^3
     number of atoms/cell      =           12
     number of atomic types    =            2
     number of electrons       =        52.00
     number of Kohn-Sham states=           62
     kinetic-energy cutoff     =      50.0000  Ry
     charge density cutoff     =     200.0000  Ry
     convergence threshold     =      1.0E-06
     mixing beta               =       0.7000
     number of iterations used =            8  plain     mixing
     Exchange-correlation      =  SLA  PW   PBX  PBC ( 1  4  3  4 0 0)
     Non magnetic calculation with spin-orbit

     celldm(1)=  13.658752  celldm(2)=   0.000000  celldm(3)=   0.000000
     celldm(4)=   0.000000  celldm(5)=   0.000000  celldm(6)=   0.000000

     crystal axes: (cart. coord. in units of alat)
               a(1) = (   1.000000   0.000000   0.000000 )
               a(2) = (  -0.250003   0.433017   0.000000 )
               a(3) = (   0.000000   0.000000   0.798309 )

     reciprocal axes: (cart. coord. in units 2 pi/alat)
               b(1) = (  1.000000  0.577353  0.000000 )
               b(2) = (  0.000000  2.309381  0.000000 )
               b(3) = (  0.000000  0.000000  1.252647 )

     PseudoPot. # 1 for Gd read from file:
     /home/shaharpit/MeamGdH/dft/qe_potentials/Gd.rel-pbe-spdn-kjpaw_psl.1.0.0.UPF
     MD5 check sum: cf50ec46d1536b4a0251694df1946a53
     Pseudo is Projector augmented-wave + core cor, Zval = 11.0
     Generated using "atomic" code by A. Dal Corso  v.6.2.2
     Shape of augmentation charge: PSQ
     Using radial grid of 1263 points, 10 beta functions with:
                l(1) =   0
                l(2) =   0
                l(3) =   1
                l(4) =   1
                l(5) =   1
                l(6) =   1
                l(7) =   2
                l(8) =   2
                l(9) =   2
               l(10) =   2
     Q(r) pseudized with 0 coefficients

     PseudoPot. # 2 for  H read from file:
     /home/shaharpit/MeamGdH/dft/qe_potentials/H.pbe-kjpaw_psl.0.1.UPF
     MD5 check sum: fbb168fef676c0aaadbafd73f5b1efa8
     Pseudo is Projector augmented-wave, Zval =  1.0
     Generated using "atomic" code by A. Dal Corso  v.5.0.2 svn rev. 9415
     Shape of augmentation charge: PSQ
     Using radial grid of  929 points,  2 beta functions with:
                l(1) =   0
                l(2) =   0
     Q(r) pseudized with 0 coefficients

     atomic species   valence    mass     pseudopotential
        Gd            11.00   157.25000     Gd( 1.00)
        H              1.00     1.00794      H( 1.00)

     No symmetry found

   Cartesian axes

     site n.     atom                  positions (alat units)
         1           Gd  tau(   1) = (   0.2499738   0.1443244   0.5987320  )
         2           Gd  tau(   2) = (   0.7499738   0.1443244   0.5987320  )
         3           Gd  tau(   3) = (   0.0000227   0.2886921   0.1995773  )
         4           Gd  tau(   4) = (   0.5000227   0.2886921   0.1995773  )
         5           H   tau(   5) = (   0.2603489   0.1351878   0.7734021  )
         6           H   tau(   6) = (   0.7141741   0.1153989   0.7679736  )
         7           H   tau(   7) = (   0.7240968   0.3952575   0.4070579  )
         8           H   tau(   8) = (   0.2676216   0.4208487   0.3987555  )
         9           H   tau(   9) = (  -0.0020534   0.4258284   0.2957736  )
        10           H   tau(  10) = (   0.7594248   0.0214343   0.2383752  )
        11           H   tau(  11) = (  -0.0314513   0.1687898   0.6524582  )
        12           H   tau(  12) = (   0.5425737   0.1587005   0.6760083  )

     number of k points=    36  gaussian smearing, width (Ry)=  0.0100
                       cart. coord. in units 2pi/alat
        k(    1) = (   0.0000000   0.0000000   0.0000000), wk =   0.0156250
        k(    2) = (   0.0000000   0.0000000   0.3131618), wk =   0.0312500
        k(    3) = (   0.0000000   0.0000000  -0.6263236), wk =   0.0156250
        k(    4) = (   0.0000000   0.5773452   0.0000000), wk =   0.0312500
        k(    5) = (   0.0000000   0.5773452   0.3131618), wk =   0.0312500
        k(    6) = (   0.0000000   0.5773452  -0.6263236), wk =   0.0312500
        k(    7) = (   0.0000000  -1.1546904   0.0000000), wk =   0.0156250
        k(    8) = (   0.0000000  -1.1546904   0.3131618), wk =   0.0312500
        k(    9) = (   0.0000000  -1.1546904  -0.6263236), wk =   0.0156250
        k(   10) = (   0.2500000   0.1443383   0.0000000), wk =   0.0312500
        k(   11) = (   0.2500000   0.1443383   0.3131618), wk =   0.0312500
        k(   12) = (   0.2500000   0.1443383  -0.6263236), wk =   0.0312500
        k(   13) = (   0.2500000   0.7216835   0.0000000), wk =   0.0312500
        k(   14) = (   0.2500000   0.7216835   0.3131618), wk =   0.0312500
        k(   15) = (   0.2500000   0.7216835  -0.6263236), wk =   0.0312500
        k(   16) = (   0.2500000  -1.0103521   0.0000000), wk =   0.0312500
        k(   17) = (   0.2500000  -1.0103521   0.3131618), wk =   0.0312500
        k(   18) = (   0.2500000  -1.0103521  -0.6263236), wk =   0.0312500
        k(   19) = (   0.2500000  -0.4330069   0.0000000), wk =   0.0312500
        k(   20) = (   0.2500000  -0.4330069   0.3131618), wk =   0.0312500
        k(   21) = (   0.2500000  -0.4330069  -0.6263236), wk =   0.0312500
        k(   22) = (  -0.5000000  -0.2886766   0.0000000), wk =   0.0156250
        k(   23) = (  -0.5000000  -0.2886766   0.3131618), wk =   0.0312500
        k(   24) = (  -0.5000000  -0.2886766  -0.6263236), wk =   0.0156250
        k(   25) = (  -0.5000000   0.2886686   0.0000000), wk =   0.0312500
        k(   26) = (  -0.5000000   0.2886686   0.3131618), wk =   0.0312500
        k(   27) = (  -0.5000000   0.2886686  -0.6263236), wk =   0.0312500
        k(   28) = (  -0.5000000  -1.4433670   0.0000000), wk =   0.0156250
        k(   29) = (  -0.5000000  -1.4433670   0.3131618), wk =   0.0312500
        k(   30) = (  -0.5000000  -1.4433670  -0.6263236), wk =   0.0156250
        k(   31) = (   0.0000000  -0.5773452   0.3131618), wk =   0.0312500
        k(   32) = (  -0.2500000  -0.1443383   0.3131618), wk =   0.0312500
        k(   33) = (  -0.2500000  -0.7216835   0.3131618), wk =   0.0312500
        k(   34) = (  -0.2500000   1.0103521   0.3131618), wk =   0.0312500
        k(   35) = (  -0.2500000   0.4330069   0.3131618), wk =   0.0312500
        k(   36) = (   0.5000000  -0.2886686   0.3131618), wk =   0.0312500

     Initial potential from superposition of free atoms

     starting charge   51.92374, renormalised to   52.00000
     Starting wfc are  120 randomized atomic wfcs
     Checking if some PAW data can be deallocated...

     Self-consistent Calculation

     iteration #  1     ecut=    50.00 Ry     beta=0.70
     Davidson diagonalization with overlap
     ethr =  1.00E-02,  avg # of iterations =  2.0

     total energy              =   -2245.87557541 Ry
     Harris-Foulkes estimate   =   -2246.55184671 Ry
     estimated scf accuracy    <       1.12070354 Ry

[...]

     total energy              =   -2246.18221852 Ry
     Harris-Foulkes estimate   =   -2246.18223010 Ry
     estimated scf accuracy    <       0.00003044 Ry

     iteration # 10     ecut=    50.00 Ry     beta=0.70
     Davidson diagonalization with overlap
     ethr =  5.85E-08,  avg # of iterations =  2.2

     End of self-consistent calculation

          k = 0.0000 0.0000 0.0000 (  5289 PWs)   bands (ev):

   -33.3399 -33.3399 -33.2140 -33.2140 -32.6257 -32.6257 -32.0194 -32.0194
   -14.4875 -14.4875 -14.3059 -14.3059 -13.7844 -13.7844 -13.3400 -13.3400
   -10.7288 -10.7288 -10.4968 -10.4968 -10.0732 -10.0732  -9.7803  -9.7803
    -9.5635  -9.5635  -9.2263  -9.2263  -8.8983  -8.8983  -8.4089  -8.4089
     3.5098   3.5098   5.6183   5.6183   6.0826   6.0826   6.3499   6.3499
     7.9035   7.9035   8.1262   8.1262   8.7752   8.7752   9.2213   9.2213
     9.7943   9.7943  11.1012  11.1012  11.7207  11.7207  11.8731  11.8731
    12.2834  12.2834  12.4334  12.4334  13.0661  13.0661

[...]

          k =-0.5000-0.2887 0.0000 (  5254 PWs)   bands (ev):

[...]

          k =-0.2500 0.4330 0.3132 (  5259 PWs)   bands (ev):

[...]

          k = 0.5000-0.2887 0.3132 (  5250 PWs)   bands (ev):

   -33.3232 -33.3230 -33.2036 -33.2035 -32.6151 -32.6150 -32.0096 -32.0094
   -14.5326 -14.5107 -14.3658 -14.3522 -13.8069 -13.8006 -13.3730 -13.3680
   -10.7834 -10.7362 -10.5838 -10.5638 -10.0480 -10.0260  -9.8149  -9.7679
    -9.5608  -9.5437  -9.4531  -9.4225  -8.9925  -8.9634  -8.6490  -8.6198
     4.8743   5.0096   5.7254   5.8062   6.3677   6.4584   6.7085   6.8095
     7.0596   7.0921   7.6736   7.7658   8.5682   8.6600   8.8044   8.8869
    10.1198  10.1800  10.8379  10.8873  11.4438  11.4939  11.6115  11.7003
    12.1659  12.2232  12.2535  12.3032  12.8480  12.9167

     the Fermi energy is    11.1516 ev

!    total energy              =   -2246.18222367 Ry
     Harris-Foulkes estimate   =   -2246.18222428 Ry
     estimated scf accuracy    <       0.00000086 Ry

     total all-electron energy =    -90250.525600 Ry

     The total energy is the sum of the following terms:

     one-electron contribution =     -41.16252730 Ry
     hartree contribution      =      45.30593113 Ry
     xc contribution           =    -258.88564160 Ry
     ewald contribution        =    -243.31098133 Ry
     one-center paw contrib.   =   -1748.12685827 Ry
     smearing contrib. (-TS)   =      -0.00214630 Ry

     convergence has been achieved in  10 iterations

     Writing output data file 2326.save

     General routines

     Parallel routines

   This run was terminated on:  10:57:57  16Nov2022

   JOB DONE.
Removing 2326 from /home/shaharpit/tmp