     Program PWSCF v.6.1 (svn rev. 13369) starts on 16Nov2022 at 10:59:11

     Current dimensions of program PWSCF are:
     Max number of different atomic species (ntypx) = 10
     Max number of k-points (npk) =  40000
     Max angular momentum in pseudopotentials (lmaxx) =  3
               file Gd.rel-pbe-spdn-kjpaw_psl.1.0.0.UPF: wavefunction(s)  5P 5P renormalized
               file H.pbe-kjpaw_psl.0.1.UPF: wavefunction(s)  1S renormalized

     Subspace diagonalization in iterative solution of the eigenvalue problem:
     a serial algorithm will be used

     bravais-lattice index     =            0
     lattice parameter (alat)  =      13.1873  a.u.
     unit-cell volume          =     792.7371 (a.u.)^3
     number of atoms/cell      =            8
     number of atomic types    =            2
     number of electrons       =        48.00
     number of Kohn-Sham states=           58
     kinetic-energy cutoff     =      50.0000  Ry
     charge density cutoff     =     200.0000  Ry
     convergence threshold     =      1.0E-06
     mixing beta               =       0.7000
     number of iterations used =            8  plain     mixing
     Exchange-correlation      =  SLA  PW   PBX  PBC ( 1  4  3  4 0 0)
     Non magnetic calculation with spin-orbit

     celldm(1)=  13.187265  celldm(2)=   0.000000  celldm(3)=   0.000000
     celldm(4)=   0.000000  celldm(5)=   0.000000  celldm(6)=   0.000000

     crystal axes: (cart. coord. in units of alat)
               a(1) = (   1.000000   0.000000   0.000000 )
               a(2) = (  -0.250000   0.433008   0.000000 )
               a(3) = (   0.000000   0.000000   0.798306 )

     reciprocal axes: (cart. coord. in units 2 pi/alat)
               b(1) = (  1.000000  0.577357  0.000000 )
               b(2) = (  0.000000  2.309428  0.000000 )
               b(3) = (  0.000000  0.000000  1.252652 )

     PseudoPot. # 1 for Gd read from file:
     /home/shaharpit/MeamGdH/dft/qe_potentials/Gd.rel-pbe-spdn-kjpaw_psl.1.0.0.UPF
     MD5 check sum: cf50ec46d1536b4a0251694df1946a53
     Pseudo is Projector augmented-wave + core cor, Zval = 11.0
     Generated using "atomic" code by A. Dal Corso  v.6.2.2
     Shape of augmentation charge: PSQ
     Using radial grid of 1263 points, 10 beta functions with:
                l(1) =   0
                l(2) =   0
                l(3) =   1
                l(4) =   1
                l(5) =   1
                l(6) =   1
                l(7) =   2
                l(8) =   2
                l(9) =   2
               l(10) =   2
     Q(r) pseudized with 0 coefficients

     PseudoPot. # 2 for  H read from file:
     /home/shaharpit/MeamGdH/dft/qe_potentials/H.pbe-kjpaw_psl.0.1.UPF
     MD5 check sum: fbb168fef676c0aaadbafd73f5b1efa8
     Pseudo is Projector augmented-wave, Zval =  1.0
     Generated using "atomic" code by A. Dal Corso  v.5.0.2 svn rev. 9415
     Shape of augmentation charge: PSQ
     Using radial grid of  929 points,  2 beta functions with:
                l(1) =   0
                l(2) =   0
     Q(r) pseudized with 0 coefficients

     atomic species   valence    mass     pseudopotential
        Gd            11.00   157.25000     Gd( 1.00)
        H              1.00     1.00794      H( 1.00)

     No symmetry found

   Cartesian axes

     site n.     atom                  positions (alat units)
         1           Gd  tau(   1) = (   0.2499750   0.1443214   0.5987297  )
         2           Gd  tau(   2) = (   0.7499750   0.1443214   0.5987297  )
         3           Gd  tau(   3) = (   0.0000250   0.2886861   0.1995766  )
         4           Gd  tau(   4) = (   0.5000250   0.2886861   0.1995766  )
         5           H   tau(   5) = (   0.2603500   0.1351850   0.7733990  )
         6           H   tau(   6) = (   0.7141750   0.1153965   0.7679706  )
         7           H   tau(   7) = (   0.7241000   0.3952493   0.4070563  )
         8           H   tau(   8) = (   0.2676250   0.4208401   0.3987539  )

     number of k points=    36  gaussian smearing, width (Ry)=  0.0100
                       cart. coord. in units 2pi/alat
        k(    1) = (   0.0000000   0.0000000   0.0000000), wk =   0.0156250
        k(    2) = (   0.0000000   0.0000000   0.3131630), wk =   0.0312500
        k(    3) = (   0.0000000   0.0000000  -0.6263261), wk =   0.0156250
        k(    4) = (   0.0000000   0.5773571   0.0000000), wk =   0.0312500
        k(    5) = (   0.0000000   0.5773571   0.3131630), wk =   0.0312500
        k(    6) = (   0.0000000   0.5773571  -0.6263261), wk =   0.0312500
        k(    7) = (   0.0000000  -1.1547142   0.0000000), wk =   0.0156250
        k(    8) = (   0.0000000  -1.1547142   0.3131630), wk =   0.0312500
        k(    9) = (   0.0000000  -1.1547142  -0.6263261), wk =   0.0156250
        k(   10) = (   0.2500000   0.1443393   0.0000000), wk =   0.0312500
        k(   11) = (   0.2500000   0.1443393   0.3131630), wk =   0.0312500
        k(   12) = (   0.2500000   0.1443393  -0.6263261), wk =   0.0312500
        k(   13) = (   0.2500000   0.7216964   0.0000000), wk =   0.0312500
        k(   14) = (   0.2500000   0.7216964   0.3131630), wk =   0.0312500
        k(   15) = (   0.2500000   0.7216964  -0.6263261), wk =   0.0312500
        k(   16) = (   0.2500000  -1.0103750   0.0000000), wk =   0.0312500
        k(   17) = (   0.2500000  -1.0103750   0.3131630), wk =   0.0312500
        k(   18) = (   0.2500000  -1.0103750  -0.6263261), wk =   0.0312500
        k(   19) = (   0.2500000  -0.4330178   0.0000000), wk =   0.0312500
        k(   20) = (   0.2500000  -0.4330178   0.3131630), wk =   0.0312500
        k(   21) = (   0.2500000  -0.4330178  -0.6263261), wk =   0.0312500
        k(   22) = (  -0.5000000  -0.2886786   0.0000000), wk =   0.0156250
        k(   23) = (  -0.5000000  -0.2886786   0.3131630), wk =   0.0312500
        k(   24) = (  -0.5000000  -0.2886786  -0.6263261), wk =   0.0156250
        k(   25) = (  -0.5000000   0.2886786   0.0000000), wk =   0.0312500
        k(   26) = (  -0.5000000   0.2886786   0.3131630), wk =   0.0312500
        k(   27) = (  -0.5000000   0.2886786  -0.6263261), wk =   0.0312500
        k(   28) = (  -0.5000000  -1.4433928   0.0000000), wk =   0.0156250
        k(   29) = (  -0.5000000  -1.4433928   0.3131630), wk =   0.0312500
        k(   30) = (  -0.5000000  -1.4433928  -0.6263261), wk =   0.0156250
        k(   31) = (   0.0000000  -0.5773571   0.3131630), wk =   0.0312500
        k(   32) = (  -0.2500000  -0.1443393   0.3131630), wk =   0.0312500
        k(   33) = (  -0.2500000  -0.7216964   0.3131630), wk =   0.0312500
        k(   34) = (  -0.2500000   1.0103750   0.3131630), wk =   0.0312500
        k(   35) = (  -0.2500000   0.4330178   0.3131630), wk =   0.0312500
        k(   36) = (   0.5000000  -0.2886786   0.3131630), wk =   0.0312500

     Initial potential from superposition of free atoms

     starting charge   47.92377, renormalised to   48.00000
     Starting wfc are  112 randomized atomic wfcs
     Checking if some PAW data can be deallocated...

     Self-consistent Calculation

     iteration #  1     ecut=    50.00 Ry     beta=0.70
     Davidson diagonalization with overlap
     ethr =  1.00E-02,  avg # of iterations =  2.0

     total energy              =   -2242.12622188 Ry
     Harris-Foulkes estimate   =   -2242.57181429 Ry
     estimated scf accuracy    <       0.65696584 Ry

[...]

     iteration #  7     ecut=    50.00 Ry     beta=0.70
     Davidson diagonalization with overlap
     c_bands:  1 eigenvalues not converged
     ethr =  2.42E-06,  avg # of iterations =  5.5

[...]

     total energy              =   -2242.37127881 Ry
     Harris-Foulkes estimate   =   -2242.37128410 Ry
     estimated scf accuracy    <       0.00001435 Ry

     iteration # 10     ecut=    50.00 Ry     beta=0.70
     Davidson diagonalization with overlap
     ethr =  2.99E-08,  avg # of iterations =  2.8

     End of self-consistent calculation

          k = 0.0000 0.0000 0.0000 (  4677 PWs)   bands (ev):

   -31.8763 -31.8763 -31.6134 -31.6134 -31.5576 -31.5576 -31.3891 -31.3891
   -12.9053 -12.9053 -12.7357 -12.7357 -12.6059 -12.6059 -12.2076 -12.2076
    -9.1226  -9.1226  -8.9486  -8.9486  -8.5887  -8.5887  -8.2114  -8.2114
    -7.9533  -7.9533  -7.8586  -7.8586  -7.7580  -7.7580  -7.2871  -7.2871
     5.1225   5.1225   7.0109   7.0109   8.1805   8.1805   8.7129   8.7129
    10.4336  10.4336  11.0628  11.0628  11.3778  11.3778  12.4119  12.4119
    13.0401  13.0401  13.2686  13.2686  13.6504  13.6504  13.7915  13.7915
    13.9273  13.9273

[...]

          k =-0.5000-0.2887 0.0000 (  4734 PWs)   bands (ev):

[...]

          k =-0.2500 0.4330 0.3132 (  4739 PWs)   bands (ev):

[...]

          k = 0.5000-0.2887 0.3132 (  4725 PWs)   bands (ev):

   -31.8481 -31.8480 -31.5886 -31.5885 -31.5482 -31.5480 -31.3834 -31.3831
   -12.8852 -12.8497 -12.7378 -12.7083 -12.6320 -12.6207 -12.3845 -12.3579
    -9.1517  -9.0810  -8.9822  -8.9169  -8.5275  -8.5056  -8.4071  -8.3775
    -8.1997  -8.1533  -8.0776  -8.0078  -7.8635  -7.7687  -7.5668  -7.5299
     6.4531   6.5452   6.9345   6.9876   8.2711   8.3554   8.6656   8.7868
    10.5952  10.6364  11.0774  11.1038  11.7749  11.8762  12.0605  12.1200
    12.5827  12.6525  12.7131  12.7466  13.0474  13.1592  13.6761  13.7262
    13.8469  13.8886

     the Fermi energy is    12.3823 ev

!    total energy              =   -2242.37128093 Ry
     Harris-Foulkes estimate   =   -2242.37128176 Ry
     estimated scf accuracy    <       0.00000100 Ry

     total all-electron energy =    -90246.714675 Ry

     The total energy is the sum of the following terms:

     one-electron contribution =     -31.77832425 Ry
     hartree contribution      =      39.77829471 Ry
     xc contribution           =    -255.29885302 Ry
     ewald contribution        =    -246.98005572 Ry
     one-center paw contrib.   =   -1748.08990340 Ry
     smearing contrib. (-TS)   =      -0.00243927 Ry

     convergence has been achieved in  10 iterations

     Writing output data file 2334.save

     General routines

     Parallel routines

   This run was terminated on:  11: 1: 5  16Nov2022

   JOB DONE.
Removing 2334 from /home/shaharpit/tmp