     Program PWSCF v.6.1 (svn rev. 13369) starts on 16Nov2022 at 11: 0:45

     Current dimensions of program PWSCF are:
     Max number of different atomic species (ntypx) = 10
     Max number of k-points (npk) =  40000
     Max angular momentum in pseudopotentials (lmaxx) =  3
               file Gd.rel-pbe-spdn-kjpaw_psl.1.0.0.UPF: wavefunction(s)  5P 5P renormalized
               file H.pbe-kjpaw_psl.0.1.UPF: wavefunction(s)  1S renormalized

     Subspace diagonalization in iterative solution of the eigenvalue problem:
     a serial algorithm will be used

     bravais-lattice index     =            0
     lattice parameter (alat)  =      14.0996  a.u.
     unit-cell volume          =     968.9289 (a.u.)^3
     number of atoms/cell      =           10
     number of atomic types    =            2
     number of electrons       =        50.00
     number of Kohn-Sham states=           60
     kinetic-energy cutoff     =      50.0000  Ry
     charge density cutoff     =     200.0000  Ry
     convergence threshold     =      1.0E-06
     mixing beta               =       0.7000
     number of iterations used =            8  plain     mixing
     Exchange-correlation      =  SLA  PW   PBX  PBC ( 1  4  3  4 0 0)
     Non magnetic calculation with spin-orbit

     celldm(1)=  14.099625  celldm(2)=   0.000000  celldm(3)=   0.000000
     celldm(4)=   0.000000  celldm(5)=   0.000000  celldm(6)=   0.000000

     crystal axes: (cart. coord. in units of alat)
               a(1) = (   1.000000   0.000000   0.000000 )
               a(2) = (  -0.250000   0.433013   0.000000 )
               a(3) = (   0.000000   0.000000   0.798303 )

     reciprocal axes: (cart. coord. in units 2 pi/alat)
               b(1) = (  1.000000  0.577349  0.000000 )
               b(2) = (  0.000000  2.309397  0.000000 )
               b(3) = (  0.000000  0.000000  1.252657 )

     PseudoPot. # 1 for Gd read from file:
     /home/shaharpit/MeamGdH/dft/qe_potentials/Gd.rel-pbe-spdn-kjpaw_psl.1.0.0.UPF
     MD5 check sum: cf50ec46d1536b4a0251694df1946a53
     Pseudo is Projector augmented-wave + core cor, Zval = 11.0
     Generated using "atomic" code by A. Dal Corso  v.6.2.2
     Shape of augmentation charge: PSQ
     Using radial grid of 1263 points, 10 beta functions with:
                l(1) =   0
                l(2) =   0
                l(3) =   1
                l(4) =   1
                l(5) =   1
                l(6) =   1
                l(7) =   2
                l(8) =   2
                l(9) =   2
               l(10) =   2
     Q(r) pseudized with 0 coefficients

     PseudoPot. # 2 for  H read from file:
     /home/shaharpit/MeamGdH/dft/qe_potentials/H.pbe-kjpaw_psl.0.1.UPF
     MD5 check sum: fbb168fef676c0aaadbafd73f5b1efa8
     Pseudo is Projector augmented-wave, Zval =  1.0
     Generated using "atomic" code by A. Dal Corso  v.5.0.2 svn rev. 9415
     Shape of augmentation charge: PSQ
     Using radial grid of  929 points,  2 beta functions with:
                l(1) =   0
                l(2) =   0
     Q(r) pseudized with 0 coefficients

     atomic species   valence    mass     pseudopotential
        Gd            11.00   157.25000     Gd( 1.00)
        H              1.00     1.00794      H( 1.00)

     No symmetry found

   Cartesian axes

     site n.     atom                  positions (alat units)
         1           Gd  tau(   1) = (   0.2499750   0.1443234   0.5987274  )
         2           Gd  tau(   2) = (   0.7499750   0.1443234   0.5987274  )
         3           Gd  tau(   3) = (   0.0000250   0.2886901   0.1995758  )
         4           Gd  tau(   4) = (   0.5000250   0.2886901   0.1995758  )
         5           H   tau(   5) = (   0.2603500   0.1351868   0.7733962  )
         6           H   tau(   6) = (   0.7141750   0.1153981   0.7679677  )
         7           H   tau(   7) = (   0.7241000   0.3952547   0.4070548  )
         8           H   tau(   8) = (   0.2676250   0.4208458   0.3987525  )
         9           H   tau(   9) = (  -0.0020500   0.4258254   0.2957713  )
        10           H   tau(  10) = (   0.7594250   0.0214342   0.2383733  )

     number of k points=    36  gaussian smearing, width (Ry)=  0.0100
                       cart. coord. in units 2pi/alat
        k(    1) = (   0.0000000   0.0000000   0.0000000), wk =   0.0156250
        k(    2) = (   0.0000000   0.0000000   0.3131642), wk =   0.0312500
        k(    3) = (   0.0000000   0.0000000  -0.6263284), wk =   0.0156250
        k(    4) = (   0.0000000   0.5773493   0.0000000), wk =   0.0312500
        k(    5) = (   0.0000000   0.5773493   0.3131642), wk =   0.0312500
        k(    6) = (   0.0000000   0.5773493  -0.6263284), wk =   0.0312500
        k(    7) = (   0.0000000  -1.1546985   0.0000000), wk =   0.0156250
        k(    8) = (   0.0000000  -1.1546985   0.3131642), wk =   0.0312500
        k(    9) = (   0.0000000  -1.1546985  -0.6263284), wk =   0.0156250
        k(   10) = (   0.2500000   0.1443373   0.0000000), wk =   0.0312500
        k(   11) = (   0.2500000   0.1443373   0.3131642), wk =   0.0312500
        k(   12) = (   0.2500000   0.1443373  -0.6263284), wk =   0.0312500
        k(   13) = (   0.2500000   0.7216866   0.0000000), wk =   0.0312500
        k(   14) = (   0.2500000   0.7216866   0.3131642), wk =   0.0312500
        k(   15) = (   0.2500000   0.7216866  -0.6263284), wk =   0.0312500
        k(   16) = (   0.2500000  -1.0103612   0.0000000), wk =   0.0312500
        k(   17) = (   0.2500000  -1.0103612   0.3131642), wk =   0.0312500
        k(   18) = (   0.2500000  -1.0103612  -0.6263284), wk =   0.0312500
        k(   19) = (   0.2500000  -0.4330119   0.0000000), wk =   0.0312500
        k(   20) = (   0.2500000  -0.4330119   0.3131642), wk =   0.0312500
        k(   21) = (   0.2500000  -0.4330119  -0.6263284), wk =   0.0312500
        k(   22) = (  -0.5000000  -0.2886746   0.0000000), wk =   0.0156250
        k(   23) = (  -0.5000000  -0.2886746   0.3131642), wk =   0.0312500
        k(   24) = (  -0.5000000  -0.2886746  -0.6263284), wk =   0.0156250
        k(   25) = (  -0.5000000   0.2886746   0.0000000), wk =   0.0312500
        k(   26) = (  -0.5000000   0.2886746   0.3131642), wk =   0.0312500
        k(   27) = (  -0.5000000   0.2886746  -0.6263284), wk =   0.0312500
        k(   28) = (  -0.5000000  -1.4433732   0.0000000), wk =   0.0156250
        k(   29) = (  -0.5000000  -1.4433732   0.3131642), wk =   0.0312500
        k(   30) = (  -0.5000000  -1.4433732  -0.6263284), wk =   0.0156250
        k(   31) = (   0.0000000  -0.5773493   0.3131642), wk =   0.0312500
        k(   32) = (  -0.2500000  -0.1443373   0.3131642), wk =   0.0312500
        k(   33) = (  -0.2500000  -0.7216866   0.3131642), wk =   0.0312500
        k(   34) = (  -0.2500000   1.0103612   0.3131642), wk =   0.0312500
        k(   35) = (  -0.2500000   0.4330119   0.3131642), wk =   0.0312500
        k(   36) = (   0.5000000  -0.2886746   0.3131642), wk =   0.0312500

     Initial potential from superposition of free atoms

     starting charge   49.92376, renormalised to   50.00000
     Starting wfc are  116 randomized atomic wfcs
     Checking if some PAW data can be deallocated...

     Self-consistent Calculation

     iteration #  1     ecut=    50.00 Ry     beta=0.70
     Davidson diagonalization with overlap
     ethr =  1.00E-02,  avg # of iterations =  2.0

     total energy              =   -2244.03075414 Ry
     Harris-Foulkes estimate   =   -2244.48041366 Ry
     estimated scf accuracy    <       0.79174716 Ry

[...]

     total energy              =   -2244.19847814 Ry
     Harris-Foulkes estimate   =   -2244.19848367 Ry
     estimated scf accuracy    <       0.00001644 Ry

     iteration #  9     ecut=    50.00 Ry     beta=0.70
     Davidson diagonalization with overlap
     ethr =  3.29E-08,  avg # of iterations =  2.7

     End of self-consistent calculation

          k = 0.0000 0.0000 0.0000 (  5761 PWs)   bands (ev):

   -34.6806 -34.6806 -34.4989 -34.4989 -34.2097 -34.2097 -34.0389 -34.0389
   -15.7550 -15.7550 -15.5485 -15.5485 -15.2495 -15.2495 -15.0697 -15.0697
   -11.9666 -11.9666 -11.7346 -11.7346 -11.4404 -11.4404 -11.2602 -11.2602
   -10.9170 -10.9170 -10.6604 -10.6604 -10.5118 -10.5118 -10.2116 -10.2116
     2.7872   2.7872   5.0177   5.0177   5.1813   5.1813   6.0209   6.0209
     7.0530   7.0530   7.3750   7.3750   8.3154   8.3154   8.8248   8.8248
     9.4548   9.4548  10.2024  10.2024  10.6525  10.6525  10.9693  10.9693
    11.0771  11.0771  11.6770  11.6770

[...]

          k =-0.5000-0.2887 0.0000 (  5780 PWs)   bands (ev):

[...]

          k =-0.2500 0.4330 0.3132 (  5790 PWs)   bands (ev):

[...]

          k = 0.5000-0.2887 0.3132 (  5776 PWs)   bands (ev):

   -34.6710 -34.6709 -34.4905 -34.4904 -34.2027 -34.2026 -34.0333 -34.0332
   -15.7846 -15.7716 -15.5903 -15.5770 -15.2685 -15.2643 -15.1045 -15.1002
   -12.0102 -11.9790 -11.7973 -11.7725 -11.4509 -11.4397 -11.3049 -11.2675
   -10.9312 -10.9206 -10.7888 -10.7680 -10.5536 -10.5231 -10.3541 -10.3408
     3.8755   4.0142   4.7914   4.9020   5.4621   5.5277   5.7398   5.8092
     7.0724   7.1582   7.2751   7.3161   8.4420   8.4674   8.9432   9.0056
     9.6570   9.7734  10.0319  10.0787  10.3847  10.4532  10.6619  10.7382
    10.9469  10.9861  11.1743  11.2659

     the Fermi energy is     9.8231 ev

!    total energy              =   -2244.19848134 Ry
     Harris-Foulkes estimate   =   -2244.19848162 Ry
     estimated scf accuracy    <       0.00000044 Ry

     total all-electron energy =    -90248.541867 Ry

     The total energy is the sum of the following terms:

     one-electron contribution =     -56.13420321 Ry
     hartree contribution      =      48.52322682 Ry
     xc contribution           =    -256.72733376 Ry
     ewald contribution        =    -231.75598174 Ry
     one-center paw contrib.   =   -1748.10040958 Ry
     smearing contrib. (-TS)   =      -0.00377986 Ry

     convergence has been achieved in   9 iterations

     Writing output data file 2339.save

     General routines

     Parallel routines

   This run was terminated on:  11: 2:40  16Nov2022

   JOB DONE.
Removing 2339 from /home/shaharpit/tmp