     Program PWSCF v.6.1 (svn rev. 13369) starts on 16Nov2022 at 10:54:52

     Current dimensions of program PWSCF are:
     Max number of different atomic species (ntypx) = 10
     Max number of k-points (npk) =  40000
     Max angular momentum in pseudopotentials (lmaxx) =  3
               file Gd.rel-pbe-spdn-kjpaw_psl.1.0.0.UPF: wavefunction(s)  5P 5P renormalized
               file H.pbe-kjpaw_psl.0.1.UPF: wavefunction(s)  1S renormalized

     Subspace diagonalization in iterative solution of the eigenvalue problem:
     a serial algorithm will be used

     bravais-lattice index     =            0
     lattice parameter (alat)  =      14.0996  a.u.
     unit-cell volume          =     968.9289 (a.u.)^3
     number of atoms/cell      =           12
     number of atomic types    =            2
     number of electrons       =        52.00
     number of Kohn-Sham states=           62
     kinetic-energy cutoff     =      50.0000  Ry
     charge density cutoff     =     200.0000  Ry
     convergence threshold     =      1.0E-06
     mixing beta               =       0.7000
     number of iterations used =            8  plain     mixing
     Exchange-correlation      =  SLA  PW   PBX  PBC ( 1  4  3  4 0 0)
     Non magnetic calculation with spin-orbit

     celldm(1)=  14.099625  celldm(2)=   0.000000  celldm(3)=   0.000000
     celldm(4)=   0.000000  celldm(5)=   0.000000  celldm(6)=   0.000000

     crystal axes: (cart. coord. in units of alat)
               a(1) = (   1.000000   0.000000   0.000000 )
               a(2) = (  -0.250000   0.433013   0.000000 )
               a(3) = (   0.000000   0.000000   0.798303 )

     reciprocal axes: (cart. coord. in units 2 pi/alat)
               b(1) = (  1.000000  0.577349  0.000000 )
               b(2) = (  0.000000  2.309397  0.000000 )
               b(3) = (  0.000000  0.000000  1.252657 )

     PseudoPot. # 1 for Gd read from file:
     /home/shaharpit/MeamGdH/dft/qe_potentials/Gd.rel-pbe-spdn-kjpaw_psl.1.0.0.UPF
     MD5 check sum: cf50ec46d1536b4a0251694df1946a53
     Pseudo is Projector augmented-wave + core cor, Zval = 11.0
     Generated using "atomic" code by A. Dal Corso  v.6.2.2
     Shape of augmentation charge: PSQ
     Using radial grid of 1263 points, 10 beta functions with:
                l(1) =   0
                l(2) =   0
                l(3) =   1
                l(4) =   1
                l(5) =   1
                l(6) =   1
                l(7) =   2
                l(8) =   2
                l(9) =   2
               l(10) =   2
     Q(r) pseudized with 0 coefficients

     PseudoPot. # 2 for  H read from file:
     /home/shaharpit/MeamGdH/dft/qe_potentials/H.pbe-kjpaw_psl.0.1.UPF
     MD5 check sum: fbb168fef676c0aaadbafd73f5b1efa8
     Pseudo is Projector augmented-wave, Zval =  1.0
     Generated using "atomic" code by A. Dal Corso  v.5.0.2 svn rev. 9415
     Shape of augmentation charge: PSQ
     Using radial grid of  929 points,  2 beta functions with:
                l(1) =   0
                l(2) =   0
     Q(r) pseudized with 0 coefficients

     atomic species   valence    mass     pseudopotential
        Gd            11.00   157.25000     Gd( 1.00)
        H              1.00     1.00794      H( 1.00)

     No symmetry found

   Cartesian axes

     site n.     atom                  positions (alat units)
         1           Gd  tau(   1) = (   0.2499750   0.1443234   0.5987274  )
         2           Gd  tau(   2) = (   0.7499750   0.1443234   0.5987274  )
         3           Gd  tau(   3) = (   0.0000250   0.2886901   0.1995758  )
         4           Gd  tau(   4) = (   0.5000250   0.2886901   0.1995758  )
         5           H   tau(   5) = (   0.2603500   0.1351868   0.7733962  )
         6           H   tau(   6) = (   0.7141750   0.1153981   0.7679677  )
         7           H   tau(   7) = (   0.7241000   0.3952547   0.4070548  )
         8           H   tau(   8) = (   0.2676250   0.4208458   0.3987525  )
         9           H   tau(   9) = (  -0.0020500   0.4258254   0.2957713  )
        10           H   tau(  10) = (   0.7594250   0.0214342   0.2383733  )
        11           H   tau(  11) = (  -0.0314500   0.1687886   0.6524532  )
        12           H   tau(  12) = (   0.5425750   0.1586994   0.6760032  )

     number of k points=    36  gaussian smearing, width (Ry)=  0.0100
                       cart. coord. in units 2pi/alat
        k(    1) = (   0.0000000   0.0000000   0.0000000), wk =   0.0156250
        k(    2) = (   0.0000000   0.0000000   0.3131642), wk =   0.0312500
        k(    3) = (   0.0000000   0.0000000  -0.6263284), wk =   0.0156250
        k(    4) = (   0.0000000   0.5773493   0.0000000), wk =   0.0312500
        k(    5) = (   0.0000000   0.5773493   0.3131642), wk =   0.0312500
        k(    6) = (   0.0000000   0.5773493  -0.6263284), wk =   0.0312500
        k(    7) = (   0.0000000  -1.1546985   0.0000000), wk =   0.0156250
        k(    8) = (   0.0000000  -1.1546985   0.3131642), wk =   0.0312500
        k(    9) = (   0.0000000  -1.1546985  -0.6263284), wk =   0.0156250
        k(   10) = (   0.2500000   0.1443373   0.0000000), wk =   0.0312500
        k(   11) = (   0.2500000   0.1443373   0.3131642), wk =   0.0312500
        k(   12) = (   0.2500000   0.1443373  -0.6263284), wk =   0.0312500
        k(   13) = (   0.2500000   0.7216866   0.0000000), wk =   0.0312500
        k(   14) = (   0.2500000   0.7216866   0.3131642), wk =   0.0312500
        k(   15) = (   0.2500000   0.7216866  -0.6263284), wk =   0.0312500
        k(   16) = (   0.2500000  -1.0103612   0.0000000), wk =   0.0312500
        k(   17) = (   0.2500000  -1.0103612   0.3131642), wk =   0.0312500
        k(   18) = (   0.2500000  -1.0103612  -0.6263284), wk =   0.0312500
        k(   19) = (   0.2500000  -0.4330119   0.0000000), wk =   0.0312500
        k(   20) = (   0.2500000  -0.4330119   0.3131642), wk =   0.0312500
        k(   21) = (   0.2500000  -0.4330119  -0.6263284), wk =   0.0312500
        k(   22) = (  -0.5000000  -0.2886746   0.0000000), wk =   0.0156250
        k(   23) = (  -0.5000000  -0.2886746   0.3131642), wk =   0.0312500
        k(   24) = (  -0.5000000  -0.2886746  -0.6263284), wk =   0.0156250
        k(   25) = (  -0.5000000   0.2886746   0.0000000), wk =   0.0312500
        k(   26) = (  -0.5000000   0.2886746   0.3131642), wk =   0.0312500
        k(   27) = (  -0.5000000   0.2886746  -0.6263284), wk =   0.0312500
        k(   28) = (  -0.5000000  -1.4433732   0.0000000), wk =   0.0156250
        k(   29) = (  -0.5000000  -1.4433732   0.3131642), wk =   0.0312500
        k(   30) = (  -0.5000000  -1.4433732  -0.6263284), wk =   0.0156250
        k(   31) = (   0.0000000  -0.5773493   0.3131642), wk =   0.0312500
        k(   32) = (  -0.2500000  -0.1443373   0.3131642), wk =   0.0312500
        k(   33) = (  -0.2500000  -0.7216866   0.3131642), wk =   0.0312500
        k(   34) = (  -0.2500000   1.0103612   0.3131642), wk =   0.0312500
        k(   35) = (  -0.2500000   0.4330119   0.3131642), wk =   0.0312500
        k(   36) = (   0.5000000  -0.2886746   0.3131642), wk =   0.0312500

     Initial potential from superposition of free atoms

     starting charge   51.92374, renormalised to   52.00000
     Starting wfc are  120 randomized atomic wfcs
     Checking if some PAW data can be deallocated...

     Self-consistent Calculation

     iteration #  1     ecut=    50.00 Ry     beta=0.70
     Davidson diagonalization with overlap
     ethr =  1.00E-02,  avg # of iterations =  2.0

     total energy              =   -2246.12050310 Ry
     Harris-Foulkes estimate   =   -2246.82475745 Ry
     estimated scf accuracy    <       1.16217288 Ry

[...]

     total energy              =   -2246.44568817 Ry
     Harris-Foulkes estimate   =   -2246.44568889 Ry
     estimated scf accuracy    <       0.00000154 Ry

     iteration # 11     ecut=    50.00 Ry     beta=0.70
     Davidson diagonalization with overlap
     ethr =  2.97E-09,  avg # of iterations =  3.7

     End of self-consistent calculation

          k = 0.0000 0.0000 0.0000 (  5761 PWs)   bands (ev):

   -34.6224 -34.6224 -34.5147 -34.5147 -33.9299 -33.9299 -33.2455 -33.2455
   -15.6901 -15.6901 -15.5373 -15.5373 -15.0059 -15.0059 -14.4759 -14.4759
   -11.9001 -11.9001 -11.7010 -11.7010 -11.2271 -11.2271 -10.9485 -10.9485
   -10.8696 -10.8696 -10.5807 -10.5807 -10.2180 -10.2180  -9.7308  -9.7308
     2.5821   2.5821   4.7240   4.7240   5.1159   5.1159   5.3011   5.3011
     6.6387   6.6387   6.9405   6.9405   7.4316   7.4316   7.9207   7.9207
     8.7580   8.7580   9.9150   9.9150  10.5309  10.5309  10.6684  10.6684
    11.0859  11.0859  11.2024  11.2024  11.8071  11.8071

[...]

          k =-0.5000-0.2887 0.0000 (  5780 PWs)   bands (ev):

[...]

          k =-0.2500 0.4330 0.3132 (  5790 PWs)   bands (ev):

[...]

          k = 0.5000-0.2887 0.3132 (  5776 PWs)   bands (ev):

   -34.6124 -34.6123 -34.5075 -34.5075 -33.9229 -33.9229 -33.2386 -33.2384
   -15.7197 -15.7056 -15.5854 -15.5736 -15.0250 -15.0209 -14.4988 -14.4953
   -11.9445 -11.9145 -11.7718 -11.7574 -11.2321 -11.2168 -10.9303 -10.9009
   -10.8796 -10.8452 -10.7462 -10.7176 -10.2904 -10.2775  -9.8926  -9.8778
     3.8143   3.9392   4.7208   4.8144   5.3388   5.4145   5.6377   5.7129
     5.9737   6.0019   6.5731   6.6446   7.3177   7.4096   7.5075   7.5824
     9.0343   9.0805   9.7560   9.7981  10.2600  10.3055  10.4015  10.4753
    10.9479  10.9886  11.0387  11.0830  11.6012  11.6643

     the Fermi energy is     9.9830 ev

!    total energy              =   -2246.44568855 Ry
     Harris-Foulkes estimate   =   -2246.44568878 Ry
     estimated scf accuracy    <       0.00000029 Ry

     total all-electron energy =    -90250.789065 Ry

     The total energy is the sum of the following terms:

     one-electron contribution =     -52.68621271 Ry
     hartree contribution      =      48.52742275 Ry
     xc contribution           =    -258.46890695 Ry
     ewald contribution        =    -235.70415465 Ry
     one-center paw contrib.   =   -1748.11147522 Ry
     smearing contrib. (-TS)   =      -0.00236177 Ry

     convergence has been achieved in  11 iterations

     Writing output data file 2327.save

     General routines

     Parallel routines

   This run was terminated on:  10:57: 8  16Nov2022

   JOB DONE.
Removing 2327 from /home/shaharpit/tmp