     Program PWSCF v.6.1 (svn rev. 13369) starts on 16Nov2022 at 10:57: 9

     Current dimensions of program PWSCF are:
     Max number of different atomic species (ntypx) = 10
     Max number of k-points (npk) =  40000
     Max angular momentum in pseudopotentials (lmaxx) =  3
               file Gd.rel-pbe-spdn-kjpaw_psl.1.0.0.UPF: wavefunction(s)  5P 5P renormalized
               file H.pbe-kjpaw_psl.0.1.UPF: wavefunction(s)  1S renormalized

     Subspace diagonalization in iterative solution of the eigenvalue problem:
     a serial algorithm will be used

     bravais-lattice index     =            0
     lattice parameter (alat)  =      13.1873  a.u.
     unit-cell volume          =     792.7371 (a.u.)^3
     number of atoms/cell      =            6
     number of atomic types    =            2
     number of electrons       =        46.00
     number of Kohn-Sham states=           56
     kinetic-energy cutoff     =      50.0000  Ry
     charge density cutoff     =     200.0000  Ry
     convergence threshold     =      1.0E-06
     mixing beta               =       0.7000
     number of iterations used =            8  plain     mixing
     Exchange-correlation      =  SLA  PW   PBX  PBC ( 1  4  3  4 0 0)
     Non magnetic calculation with spin-orbit

     celldm(1)=  13.187265  celldm(2)=   0.000000  celldm(3)=   0.000000
     celldm(4)=   0.000000  celldm(5)=   0.000000  celldm(6)=   0.000000

     crystal axes: (cart. coord. in units of alat)
               a(1) = (   1.000000   0.000000   0.000000 )
               a(2) = (  -0.250000   0.433008   0.000000 )
               a(3) = (   0.000000   0.000000   0.798306 )

     reciprocal axes: (cart. coord. in units 2 pi/alat)
               b(1) = (  1.000000  0.577357  0.000000 )
               b(2) = (  0.000000  2.309428  0.000000 )
               b(3) = (  0.000000  0.000000  1.252652 )

     PseudoPot. # 1 for Gd read from file:
     /home/shaharpit/MeamGdH/dft/qe_potentials/Gd.rel-pbe-spdn-kjpaw_psl.1.0.0.UPF
     MD5 check sum: cf50ec46d1536b4a0251694df1946a53
     Pseudo is Projector augmented-wave + core cor, Zval = 11.0
     Generated using "atomic" code by A. Dal Corso  v.6.2.2
     Shape of augmentation charge: PSQ
     Using radial grid of 1263 points, 10 beta functions with:
                l(1) =   0
                l(2) =   0
                l(3) =   1
                l(4) =   1
                l(5) =   1
                l(6) =   1
                l(7) =   2
                l(8) =   2
                l(9) =   2
               l(10) =   2
     Q(r) pseudized with 0 coefficients

     PseudoPot. # 2 for  H read from file:
     /home/shaharpit/MeamGdH/dft/qe_potentials/H.pbe-kjpaw_psl.0.1.UPF
     MD5 check sum: fbb168fef676c0aaadbafd73f5b1efa8
     Pseudo is Projector augmented-wave, Zval =  1.0
     Generated using "atomic" code by A. Dal Corso  v.5.0.2 svn rev. 9415
     Shape of augmentation charge: PSQ
     Using radial grid of  929 points,  2 beta functions with:
                l(1) =   0
                l(2) =   0
     Q(r) pseudized with 0 coefficients

     atomic species   valence    mass     pseudopotential
        Gd            11.00   157.25000     Gd( 1.00)
        H              1.00     1.00794      H( 1.00)

     No symmetry found

   Cartesian axes

     site n.     atom                  positions (alat units)
         1           Gd  tau(   1) = (   0.2499750   0.1443214   0.5987297  )
         2           Gd  tau(   2) = (   0.7499750   0.1443214   0.5987297  )
         3           Gd  tau(   3) = (   0.0000250   0.2886861   0.1995766  )
         4           Gd  tau(   4) = (   0.5000250   0.2886861   0.1995766  )
         5           H   tau(   5) = (   0.2603500   0.1351850   0.7733990  )
         6           H   tau(   6) = (   0.7141750   0.1153965   0.7679706  )

     number of k points=    36  gaussian smearing, width (Ry)=  0.0100
                       cart. coord. in units 2pi/alat
        k(    1) = (   0.0000000   0.0000000   0.0000000), wk =   0.0156250
        k(    2) = (   0.0000000   0.0000000   0.3131630), wk =   0.0312500
        k(    3) = (   0.0000000   0.0000000  -0.6263261), wk =   0.0156250
        k(    4) = (   0.0000000   0.5773571   0.0000000), wk =   0.0312500
        k(    5) = (   0.0000000   0.5773571   0.3131630), wk =   0.0312500
        k(    6) = (   0.0000000   0.5773571  -0.6263261), wk =   0.0312500
        k(    7) = (   0.0000000  -1.1547142   0.0000000), wk =   0.0156250
        k(    8) = (   0.0000000  -1.1547142   0.3131630), wk =   0.0312500
        k(    9) = (   0.0000000  -1.1547142  -0.6263261), wk =   0.0156250
        k(   10) = (   0.2500000   0.1443393   0.0000000), wk =   0.0312500
        k(   11) = (   0.2500000   0.1443393   0.3131630), wk =   0.0312500
        k(   12) = (   0.2500000   0.1443393  -0.6263261), wk =   0.0312500
        k(   13) = (   0.2500000   0.7216964   0.0000000), wk =   0.0312500
        k(   14) = (   0.2500000   0.7216964   0.3131630), wk =   0.0312500
        k(   15) = (   0.2500000   0.7216964  -0.6263261), wk =   0.0312500
        k(   16) = (   0.2500000  -1.0103750   0.0000000), wk =   0.0312500
        k(   17) = (   0.2500000  -1.0103750   0.3131630), wk =   0.0312500
        k(   18) = (   0.2500000  -1.0103750  -0.6263261), wk =   0.0312500
        k(   19) = (   0.2500000  -0.4330178   0.0000000), wk =   0.0312500
        k(   20) = (   0.2500000  -0.4330178   0.3131630), wk =   0.0312500
        k(   21) = (   0.2500000  -0.4330178  -0.6263261), wk =   0.0312500
        k(   22) = (  -0.5000000  -0.2886786   0.0000000), wk =   0.0156250
        k(   23) = (  -0.5000000  -0.2886786   0.3131630), wk =   0.0312500
        k(   24) = (  -0.5000000  -0.2886786  -0.6263261), wk =   0.0156250
        k(   25) = (  -0.5000000   0.2886786   0.0000000), wk =   0.0312500
        k(   26) = (  -0.5000000   0.2886786   0.3131630), wk =   0.0312500
        k(   27) = (  -0.5000000   0.2886786  -0.6263261), wk =   0.0312500
        k(   28) = (  -0.5000000  -1.4433928   0.0000000), wk =   0.0156250
        k(   29) = (  -0.5000000  -1.4433928   0.3131630), wk =   0.0312500
        k(   30) = (  -0.5000000  -1.4433928  -0.6263261), wk =   0.0156250
        k(   31) = (   0.0000000  -0.5773571   0.3131630), wk =   0.0312500
        k(   32) = (  -0.2500000  -0.1443393   0.3131630), wk =   0.0312500
        k(   33) = (  -0.2500000  -0.7216964   0.3131630), wk =   0.0312500
        k(   34) = (  -0.2500000   1.0103750   0.3131630), wk =   0.0312500
        k(   35) = (  -0.2500000   0.4330178   0.3131630), wk =   0.0312500
        k(   36) = (   0.5000000  -0.2886786   0.3131630), wk =   0.0312500

     Initial potential from superposition of free atoms

     starting charge   45.92379, renormalised to   46.00000
     Starting wfc are  108 randomized atomic wfcs
     Checking if some PAW data can be deallocated...

     Self-consistent Calculation

     iteration #  1     ecut=    50.00 Ry     beta=0.70
     Davidson diagonalization with overlap
     ethr =  1.00E-02,  avg # of iterations =  2.0

     total energy              =   -2239.65804912 Ry
     Harris-Foulkes estimate   =   -2240.12497215 Ry
     estimated scf accuracy    <       0.65167995 Ry

[...]

     iteration #  5     ecut=    50.00 Ry     beta=0.70
     Davidson diagonalization with overlap

[...]

     iteration #  7     ecut=    50.00 Ry     beta=0.70
     Davidson diagonalization with overlap
ta=0.70
     Davidson diagonalization with overlap
     ethr =  6.24E-05,  avg # of iterations =  2.8
     ethr =  2.38E-06,  avg # of iterations =  6.2

[...]

     iteration # 10     ecut=    50.00 Ry     beta=0.70
     Davidson diagonalization with overlap
     ethr =  2.64E-08,  avg # of iterations =  3.2

     total energy              =   -2239.93867717 Ry
     Harris-Foulkes estimate   =   -2239.93867765 Ry
     estimated scf accuracy    <       0.00000104 Ry

     iteration # 11     ecut=    50.00 Ry     beta=0.70
     Davidson diagonalization with overlap

     End of self-consistent calculation

          k = 0.0000 0.0000 0.0000 (  4677 PWs)   bands (ev):

   -32.1817 -32.1817 -32.0763 -32.0763 -31.7998 -31.7998 -31.7290 -31.7290
   -13.1383 -13.1383 -13.0698 -13.0698 -12.9243 -12.9243 -12.5917 -12.5917
    -9.3527  -9.3527  -9.2458  -9.2458  -8.9219  -8.9219  -8.5217  -8.5217
    -8.3138  -8.3138  -8.2497  -8.2497  -8.0359  -8.0359  -7.5693  -7.5693
     6.2241   6.2241   7.9736   7.9736   8.8952   8.8952  10.3308  10.3308
    10.4598  10.4598  11.4652  11.4652  11.7866  11.7866  13.0441  13.0441
    13.2417  13.2417  13.5364  13.5364  13.6144  13.6144  13.7593  13.7593

[...]

          k =-0.5000-0.2887 0.0000 (  4734 PWs)   bands (ev):

[...]

          k =-0.2500 0.4330 0.3132 (  4739 PWs)   bands (ev):

[...]

          k = 0.5000-0.2887 0.3132 (  4725 PWs)   bands (ev):

   -32.1466 -32.1466 -32.0672 -32.0672 -31.7800 -31.7796 -31.7264 -31.7261
   -13.1144 -13.0865 -13.0503 -13.0267 -12.9521 -12.9255 -12.7984 -12.7634
    -9.3836  -9.3073  -9.2655  -9.2268  -8.8406  -8.8312  -8.6850  -8.6662
    -8.6030  -8.5642  -8.4603  -8.3846  -8.1097  -8.0357  -7.8455  -7.8151
     7.5467   7.5929   8.0801   8.1623   9.8791  10.0468  10.5434  10.6173
    10.8692  10.9622  11.2386  11.3846  11.7428  11.8701  11.9209  11.9610
    12.4861  12.5572  12.6357  12.6639  12.9625  13.0517  13.5737  13.6557

     the Fermi energy is    11.8394 ev

!    total energy              =   -2239.93867740 Ry
     Harris-Foulkes estimate   =   -2239.93867748 Ry
     estimated scf accuracy    <       0.00000011 Ry

     total all-electron energy =    -90244.282080 Ry

     The total energy is the sum of the following terms:

     one-electron contribution =     -39.07698498 Ry
     hartree contribution      =      41.58342458 Ry
     xc contribution           =    -253.73072675 Ry
     ewald contribution        =    -240.62019859 Ry
     one-center paw contrib.   =   -1748.08979443 Ry
     smearing contrib. (-TS)   =      -0.00439723 Ry

     convergence has been achieved in  11 iterations

     Writing output data file 2331.save

     General routines

     Parallel routines

   This run was terminated on:  10:59:12  16Nov2022

   JOB DONE.
Removing 2331 from /home/shaharpit/tmp