     Program PWSCF v.6.1 (svn rev. 13369) starts on 30Nov2022 at 13:42:32

     Current dimensions of program PWSCF are:
     Max number of different atomic species (ntypx) = 10
     Max number of k-points (npk) =  40000
     Max angular momentum in pseudopotentials (lmaxx) =  3
               file Gd.rel-pbe-spdn-kjpaw_psl.1.0.0.UPF: wavefunction(s)  5P 5P renormalized
               file H.pbe-kjpaw_psl.0.1.UPF: wavefunction(s)  1S renormalized

     Subspace diagonalization in iterative solution of the eigenvalue problem:
     a serial algorithm will be used

     bravais-lattice index     =            0
     lattice parameter (alat)  =      13.6588  a.u.
     unit-cell volume          =     880.8636 (a.u.)^3
     number of atoms/cell      =           10
     number of atomic types    =            2
     number of electrons       =        50.00
     number of Kohn-Sham states=           60
     kinetic-energy cutoff     =      50.0000  Ry
     charge density cutoff     =     200.0000  Ry
     convergence threshold     =      1.0E-06
     mixing beta               =       0.7000
     number of iterations used =            8  plain     mixing
     Exchange-correlation      =  SLA  PW   PBX  PBC ( 1  4  3  4 0 0)
     Non magnetic calculation with spin-orbit

     celldm(1)=  13.658752  celldm(2)=   0.000000  celldm(3)=   0.000000
     celldm(4)=   0.000000  celldm(5)=   0.000000  celldm(6)=   0.000000

     crystal axes: (cart. coord. in units of alat)
               a(1) = (   1.000000   0.000000   0.000000 )
               a(2) = (  -0.250003   0.433017   0.000000 )
               a(3) = (   0.000000   0.000000   0.798309 )

     reciprocal axes: (cart. coord. in units 2 pi/alat)
               b(1) = (  1.000000  0.577353  0.000000 )
               b(2) = (  0.000000  2.309381  0.000000 )
               b(3) = (  0.000000  0.000000  1.252647 )

     PseudoPot. # 1 for Gd read from file:
     /home/shaharpit/MeamGdH/dft/qe_potentials/Gd.rel-pbe-spdn-kjpaw_psl.1.0.0.UPF
     MD5 check sum: cf50ec46d1536b4a0251694df1946a53
     Pseudo is Projector augmented-wave + core cor, Zval = 11.0
     Generated using "atomic" code by A. Dal Corso  v.6.2.2
     Shape of augmentation charge: PSQ
     Using radial grid of 1263 points, 10 beta functions with:
                l(1) =   0
                l(2) =   0
                l(3) =   1
                l(4) =   1
                l(5) =   1
                l(6) =   1
                l(7) =   2
                l(8) =   2
                l(9) =   2
               l(10) =   2
     Q(r) pseudized with 0 coefficients

     PseudoPot. # 2 for  H read from file:
     /home/shaharpit/MeamGdH/dft/qe_potentials/H.pbe-kjpaw_psl.0.1.UPF
     MD5 check sum: fbb168fef676c0aaadbafd73f5b1efa8
     Pseudo is Projector augmented-wave, Zval =  1.0
     Generated using "atomic" code by A. Dal Corso  v.5.0.2 svn rev. 9415
     Shape of augmentation charge: PSQ
     Using radial grid of  929 points,  2 beta functions with:
                l(1) =   0
                l(2) =   0
     Q(r) pseudized with 0 coefficients

     atomic species   valence    mass     pseudopotential
        Gd            11.00   157.25000     Gd( 1.00)
        H              1.00     1.00794      H( 1.00)

     No symmetry found

   Cartesian axes

     site n.     atom                  positions (alat units)
         1           Gd  tau(   1) = (   0.2499738   0.1443244   0.5987320  )
         2           Gd  tau(   2) = (   0.7499738   0.1443244   0.5987320  )
         3           Gd  tau(   3) = (   0.0000227   0.2886921   0.1995773  )
         4           Gd  tau(   4) = (   0.5000227   0.2886921   0.1995773  )
         5           H   tau(   5) = (   0.2603489   0.1351878   0.7734021  )
         6           H   tau(   6) = (   0.7141741   0.1153989   0.7679736  )
         7           H   tau(   7) = (   0.7240968   0.3952575   0.4070579  )
         8           H   tau(   8) = (   0.2676216   0.4208487   0.3987555  )
         9           H   tau(   9) = (  -0.0020534   0.4258284   0.2957736  )
        10           H   tau(  10) = (   0.7594248   0.0214343   0.2383752  )

     number of k points=    36  gaussian smearing, width (Ry)=  0.0100
                       cart. coord. in units 2pi/alat
        k(    1) = (   0.0000000   0.0000000   0.0000000), wk =   0.0156250
        k(    2) = (   0.0000000   0.0000000   0.3131618), wk =   0.0312500
        k(    3) = (   0.0000000   0.0000000  -0.6263236), wk =   0.0156250
        k(    4) = (   0.0000000   0.5773452   0.0000000), wk =   0.0312500
        k(    5) = (   0.0000000   0.5773452   0.3131618), wk =   0.0312500
        k(    6) = (   0.0000000   0.5773452  -0.6263236), wk =   0.0312500
        k(    7) = (   0.0000000  -1.1546904   0.0000000), wk =   0.0156250
        k(    8) = (   0.0000000  -1.1546904   0.3131618), wk =   0.0312500
        k(    9) = (   0.0000000  -1.1546904  -0.6263236), wk =   0.0156250
        k(   10) = (   0.2500000   0.1443383   0.0000000), wk =   0.0312500
        k(   11) = (   0.2500000   0.1443383   0.3131618), wk =   0.0312500
        k(   12) = (   0.2500000   0.1443383  -0.6263236), wk =   0.0312500
        k(   13) = (   0.2500000   0.7216835   0.0000000), wk =   0.0312500
        k(   14) = (   0.2500000   0.7216835   0.3131618), wk =   0.0312500
        k(   15) = (   0.2500000   0.7216835  -0.6263236), wk =   0.0312500
        k(   16) = (   0.2500000  -1.0103521   0.0000000), wk =   0.0312500
        k(   17) = (   0.2500000  -1.0103521   0.3131618), wk =   0.0312500
        k(   18) = (   0.2500000  -1.0103521  -0.6263236), wk =   0.0312500
        k(   19) = (   0.2500000  -0.4330069   0.0000000), wk =   0.0312500
        k(   20) = (   0.2500000  -0.4330069   0.3131618), wk =   0.0312500
        k(   21) = (   0.2500000  -0.4330069  -0.6263236), wk =   0.0312500
        k(   22) = (  -0.5000000  -0.2886766   0.0000000), wk =   0.0156250
        k(   23) = (  -0.5000000  -0.2886766   0.3131618), wk =   0.0312500
        k(   24) = (  -0.5000000  -0.2886766  -0.6263236), wk =   0.0156250
        k(   25) = (  -0.5000000   0.2886686   0.0000000), wk =   0.0312500
        k(   26) = (  -0.5000000   0.2886686   0.3131618), wk =   0.0312500
        k(   27) = (  -0.5000000   0.2886686  -0.6263236), wk =   0.0312500
        k(   28) = (  -0.5000000  -1.4433670   0.0000000), wk =   0.0156250
        k(   29) = (  -0.5000000  -1.4433670   0.3131618), wk =   0.0312500
        k(   30) = (  -0.5000000  -1.4433670  -0.6263236), wk =   0.0156250
        k(   31) = (   0.0000000  -0.5773452   0.3131618), wk =   0.0312500
        k(   32) = (  -0.2500000  -0.1443383   0.3131618), wk =   0.0312500
        k(   33) = (  -0.2500000  -0.7216835   0.3131618), wk =   0.0312500
        k(   34) = (  -0.2500000   1.0103521   0.3131618), wk =   0.0312500
        k(   35) = (  -0.2500000   0.4330069   0.3131618), wk =   0.0312500
        k(   36) = (   0.5000000  -0.2886686   0.3131618), wk =   0.0312500

     Initial potential from superposition of free atoms

     starting charge   49.92376, renormalised to   50.00000
     Starting wfc are  116 randomized atomic wfcs
     Checking if some PAW data can be deallocated...

     Self-consistent Calculation

     iteration #  1     ecut=    50.00 Ry     beta=0.70
     Davidson diagonalization with overlap
     ethr =  1.00E-02,  avg # of iterations =  2.0

     total energy              =   -2243.82061760 Ry
     Harris-Foulkes estimate   =   -2244.25102814 Ry
     estimated scf accuracy    <       0.75911142 Ry

[...]

     total energy              =   -2243.97777809 Ry
     Harris-Foulkes estimate   =   -2243.97778330 Ry
     estimated scf accuracy    <       0.00001409 Ry

     iteration #  9     ecut=    50.00 Ry     beta=0.70
     Davidson diagonalization with overlap
     ethr =  2.82E-08,  avg # of iterations =  2.0

     End of self-consistent calculation

          k = 0.0000 0.0000 0.0000 (  5289 PWs)   bands (ev):

   -33.4048 -33.4048 -33.2020 -33.2020 -32.9533 -32.9533 -32.7746 -32.7746
   -14.5633 -14.5633 -14.3347 -14.3347 -14.0605 -14.0605 -13.8613 -13.8613
   -10.8017 -10.8017 -10.5538 -10.5538 -10.2940 -10.2940 -10.0428 -10.0428
    -9.6002  -9.6002  -9.2938  -9.2938  -9.2054  -9.2054  -8.8451  -8.8451
     3.7227   3.7227   5.9551   5.9551   6.2585   6.2585   7.0435   7.0435
     8.3656   8.3656   8.7309   8.7309   9.3389   9.3389   9.9280   9.9280
    10.6706  10.6706  11.4285  11.4285  11.8383  11.8383  12.1723  12.1723
    12.2955  12.2955  12.9134  12.9134

[...]

          k =-0.5000-0.2887 0.0000 (  5254 PWs)   bands (ev):

[...]

          k =-0.2500 0.4330 0.3132 (  5259 PWs)   bands (ev):

[...]

          k = 0.5000-0.2887 0.3132 (  5250 PWs)   bands (ev):

   -33.3887 -33.3885 -33.1890 -33.1889 -32.9431 -32.9429 -32.7672 -32.7671
   -14.6060 -14.5858 -14.3826 -14.3665 -14.0852 -14.0779 -13.9176 -13.9101
   -10.8539 -10.8045 -10.6221 -10.5872 -10.3019 -10.2835 -10.1511 -10.0829
    -9.6172  -9.5950  -9.4717  -9.4393  -9.2808  -9.2213  -9.0434  -9.0189
     4.9126   5.0680   5.7573   5.8605   6.5440   6.6029   6.8404   6.9123
     8.3370   8.4292   8.5424   8.6027   9.5061   9.5254  10.0331  10.1084
    10.8079  10.9325  11.1913  11.2415  11.5793  11.6583  11.8452  11.9282
    12.1756  12.2187  12.3978  12.4978

     the Fermi energy is    10.9819 ev

!    total energy              =   -2243.97778084 Ry
     Harris-Foulkes estimate   =   -2243.97778110 Ry
     estimated scf accuracy    <       0.00000039 Ry

     total all-electron energy =    -90248.321166 Ry

     The total energy is the sum of the following terms:

     one-electron contribution =     -44.83239249 Ry
     hartree contribution      =      45.30263934 Ry
     xc contribution           =    -257.09596974 Ry
     ewald contribution        =    -239.23544904 Ry
     one-center paw contrib.   =   -1748.11304013 Ry
     smearing contrib. (-TS)   =      -0.00356878 Ry

     convergence has been achieved in   9 iterations

     Forces acting on atoms (cartesian axes, Ry/au):

     atom    1 type  1   force =    -0.05878073    0.04186106   -0.80043352
     atom    2 type  1   force =     0.16428869    0.11185473   -0.76024780
     atom    3 type  1   force =     0.00974694   -0.78880644   -0.52519279
     atom    4 type  1   force =    -0.04776522   -0.85794576   -0.22004045
     atom    5 type  2   force =     0.04958037   -0.04868454    0.81295569
     atom    6 type  2   force =    -0.15296399   -0.12589597    0.77056421
     atom    7 type  2   force =     0.00459218    0.01103029   -0.01034220
     atom    8 type  2   force =    -0.00213624   -0.00077337   -0.00429119
     atom    9 type  2   force =    -0.01579093    0.79744299    0.53006077
     atom   10 type  2   force =     0.04922894    0.85991701    0.20696727

     Total force =     2.439088     Total SCF correction =     0.001883

     Writing output data file 2412.save

     General routines

     Parallel routines

   This run was terminated on:  13:47: 4  30Nov2022

   JOB DONE.
Removing 2412 from /home/shaharpit/tmp