     Program PWSCF v.6.1 (svn rev. 13369) starts on 30Nov2022 at 13:42:32

     Current dimensions of program PWSCF are:
     Max number of different atomic species (ntypx) = 10
     Max number of k-points (npk) =  40000
     Max angular momentum in pseudopotentials (lmaxx) =  3
               file Gd.rel-pbe-spdn-kjpaw_psl.1.0.0.UPF: wavefunction(s)  5P 5P renormalized
               file H.pbe-kjpaw_psl.0.1.UPF: wavefunction(s)  1S renormalized

     Subspace diagonalization in iterative solution of the eigenvalue problem:
     a serial algorithm will be used

     bravais-lattice index     =            0
     lattice parameter (alat)  =      13.1873  a.u.
     unit-cell volume          =     792.7371 (a.u.)^3
     number of atoms/cell      =           10
     number of atomic types    =            2
     number of electrons       =        50.00
     number of Kohn-Sham states=           60
     kinetic-energy cutoff     =      50.0000  Ry
     charge density cutoff     =     200.0000  Ry
     convergence threshold     =      1.0E-06
     mixing beta               =       0.7000
     number of iterations used =            8  plain     mixing
     Exchange-correlation      =  SLA  PW   PBX  PBC ( 1  4  3  4 0 0)
     Non magnetic calculation with spin-orbit

     celldm(1)=  13.187265  celldm(2)=   0.000000  celldm(3)=   0.000000
     celldm(4)=   0.000000  celldm(5)=   0.000000  celldm(6)=   0.000000

     crystal axes: (cart. coord. in units of alat)
               a(1) = (   1.000000   0.000000   0.000000 )
               a(2) = (  -0.250000   0.433008   0.000000 )
               a(3) = (   0.000000   0.000000   0.798306 )

     reciprocal axes: (cart. coord. in units 2 pi/alat)
               b(1) = (  1.000000  0.577357  0.000000 )
               b(2) = (  0.000000  2.309428  0.000000 )
               b(3) = (  0.000000  0.000000  1.252652 )

     PseudoPot. # 1 for Gd read from file:
     /home/shaharpit/MeamGdH/dft/qe_potentials/Gd.rel-pbe-spdn-kjpaw_psl.1.0.0.UPF
     MD5 check sum: cf50ec46d1536b4a0251694df1946a53
     Pseudo is Projector augmented-wave + core cor, Zval = 11.0
     Generated using "atomic" code by A. Dal Corso  v.6.2.2
     Shape of augmentation charge: PSQ
     Using radial grid of 1263 points, 10 beta functions with:
                l(1) =   0
                l(2) =   0
                l(3) =   1
                l(4) =   1
                l(5) =   1
                l(6) =   1
                l(7) =   2
                l(8) =   2
                l(9) =   2
               l(10) =   2
     Q(r) pseudized with 0 coefficients

     PseudoPot. # 2 for  H read from file:
     /home/shaharpit/MeamGdH/dft/qe_potentials/H.pbe-kjpaw_psl.0.1.UPF
     MD5 check sum: fbb168fef676c0aaadbafd73f5b1efa8
     Pseudo is Projector augmented-wave, Zval =  1.0
     Generated using "atomic" code by A. Dal Corso  v.5.0.2 svn rev. 9415
     Shape of augmentation charge: PSQ
     Using radial grid of  929 points,  2 beta functions with:
                l(1) =   0
                l(2) =   0
     Q(r) pseudized with 0 coefficients

     atomic species   valence    mass     pseudopotential
        Gd            11.00   157.25000     Gd( 1.00)
        H              1.00     1.00794      H( 1.00)

     No symmetry found

   Cartesian axes

     site n.     atom                  positions (alat units)
         1           Gd  tau(   1) = (   0.2499750   0.1443214   0.5987297  )
         2           Gd  tau(   2) = (   0.7499750   0.1443214   0.5987297  )
         3           Gd  tau(   3) = (   0.0000250   0.2886861   0.1995766  )
         4           Gd  tau(   4) = (   0.5000250   0.2886861   0.1995766  )
         5           H   tau(   5) = (   0.2603500   0.1351850   0.7733990  )
         6           H   tau(   6) = (   0.7141750   0.1153965   0.7679706  )
         7           H   tau(   7) = (   0.7241000   0.3952493   0.4070563  )
         8           H   tau(   8) = (   0.2676250   0.4208401   0.3987539  )
         9           H   tau(   9) = (  -0.0020500   0.4258196   0.2957724  )
        10           H   tau(  10) = (   0.7594250   0.0214339   0.2383742  )

     number of k points=    36  gaussian smearing, width (Ry)=  0.0100
                       cart. coord. in units 2pi/alat
        k(    1) = (   0.0000000   0.0000000   0.0000000), wk =   0.0156250
        k(    2) = (   0.0000000   0.0000000   0.3131630), wk =   0.0312500
        k(    3) = (   0.0000000   0.0000000  -0.6263261), wk =   0.0156250
        k(    4) = (   0.0000000   0.5773571   0.0000000), wk =   0.0312500
        k(    5) = (   0.0000000   0.5773571   0.3131630), wk =   0.0312500
        k(    6) = (   0.0000000   0.5773571  -0.6263261), wk =   0.0312500
        k(    7) = (   0.0000000  -1.1547142   0.0000000), wk =   0.0156250
        k(    8) = (   0.0000000  -1.1547142   0.3131630), wk =   0.0312500
        k(    9) = (   0.0000000  -1.1547142  -0.6263261), wk =   0.0156250
        k(   10) = (   0.2500000   0.1443393   0.0000000), wk =   0.0312500
        k(   11) = (   0.2500000   0.1443393   0.3131630), wk =   0.0312500
        k(   12) = (   0.2500000   0.1443393  -0.6263261), wk =   0.0312500
        k(   13) = (   0.2500000   0.7216964   0.0000000), wk =   0.0312500
        k(   14) = (   0.2500000   0.7216964   0.3131630), wk =   0.0312500
        k(   15) = (   0.2500000   0.7216964  -0.6263261), wk =   0.0312500
        k(   16) = (   0.2500000  -1.0103750   0.0000000), wk =   0.0312500
        k(   17) = (   0.2500000  -1.0103750   0.3131630), wk =   0.0312500
        k(   18) = (   0.2500000  -1.0103750  -0.6263261), wk =   0.0312500
        k(   19) = (   0.2500000  -0.4330178   0.0000000), wk =   0.0312500
        k(   20) = (   0.2500000  -0.4330178   0.3131630), wk =   0.0312500
        k(   21) = (   0.2500000  -0.4330178  -0.6263261), wk =   0.0312500
        k(   22) = (  -0.5000000  -0.2886786   0.0000000), wk =   0.0156250
        k(   23) = (  -0.5000000  -0.2886786   0.3131630), wk =   0.0312500
        k(   24) = (  -0.5000000  -0.2886786  -0.6263261), wk =   0.0156250
        k(   25) = (  -0.5000000   0.2886786   0.0000000), wk =   0.0312500
        k(   26) = (  -0.5000000   0.2886786   0.3131630), wk =   0.0312500
        k(   27) = (  -0.5000000   0.2886786  -0.6263261), wk =   0.0312500
        k(   28) = (  -0.5000000  -1.4433928   0.0000000), wk =   0.0156250
        k(   29) = (  -0.5000000  -1.4433928   0.3131630), wk =   0.0312500
        k(   30) = (  -0.5000000  -1.4433928  -0.6263261), wk =   0.0156250
        k(   31) = (   0.0000000  -0.5773571   0.3131630), wk =   0.0312500
        k(   32) = (  -0.2500000  -0.1443393   0.3131630), wk =   0.0312500
        k(   33) = (  -0.2500000  -0.7216964   0.3131630), wk =   0.0312500
        k(   34) = (  -0.2500000   1.0103750   0.3131630), wk =   0.0312500
        k(   35) = (  -0.2500000   0.4330178   0.3131630), wk =   0.0312500
        k(   36) = (   0.5000000  -0.2886786   0.3131630), wk =   0.0312500

     Initial potential from superposition of free atoms

     starting charge   49.92376, renormalised to   50.00000
     Starting wfc are  116 randomized atomic wfcs
     Checking if some PAW data can be deallocated...

     Self-consistent Calculation

     iteration #  1     ecut=    50.00 Ry     beta=0.70
     Davidson diagonalization with overlap
     ethr =  1.00E-02,  avg # of iterations =  2.0

     total energy              =   -2243.52582731 Ry
     Harris-Foulkes estimate   =   -2243.94132551 Ry
     estimated scf accuracy    <       0.73057495 Ry

[...]

     total energy              =   -2243.67495874 Ry
     Harris-Foulkes estimate   =   -2243.67495930 Ry
     estimated scf accuracy    <       0.00000118 Ry

     iteration # 10     ecut=    50.00 Ry     beta=0.70
     Davidson diagonalization with overlap
     ethr =  2.37E-09,  avg # of iterations =  2.9

     End of self-consistent calculation

          k = 0.0000 0.0000 0.0000 (  4677 PWs)   bands (ev):

   -31.9167 -31.9167 -31.6867 -31.6867 -31.4841 -31.4841 -31.2960 -31.2960
   -13.1871 -13.1871 -12.9412 -12.9412 -12.6751 -12.6751 -12.4313 -12.4313
    -9.4279  -9.4279  -9.1649  -9.1649  -8.9463  -8.9463  -8.5594  -8.5594
    -8.0624  -8.0624  -7.7358  -7.7358  -7.5934  -7.5934  -7.2177  -7.2177
     4.9037   4.9037   7.0643   7.0643   7.5997   7.5997   8.2762   8.2762
     9.9261   9.9261  10.3685  10.3685  10.5640  10.5640  11.3414  11.3414
    12.1667  12.1667  12.9161  12.9161  13.2685  13.2685  13.6032  13.6032
    13.7911  13.7911  14.3947  14.3947

[...]

          k =-0.5000-0.2887 0.0000 (  4734 PWs)   bands (ev):

[...]

          k =-0.2500 0.4330 0.3132 (  4739 PWs)   bands (ev):

[...]

          k = 0.5000-0.2887 0.3132 (  4725 PWs)   bands (ev):

   -31.8875 -31.8871 -31.6659 -31.6657 -31.4696 -31.4693 -31.2873 -31.2870
   -13.2510 -13.2180 -12.9872 -12.9682 -12.7027 -12.6872 -12.5350 -12.5157
    -9.4897  -9.4100  -9.2393  -9.1888  -8.9528  -8.9085  -8.7793  -8.6555
    -8.0941  -8.0392  -7.9315  -7.8902  -7.7820  -7.6743  -7.4950  -7.4490
     6.2135   6.3876   6.9273   7.0222   7.8596   7.9120   8.1890   8.2652
     9.8499   9.9453  10.0723  10.1467  10.7975  10.8315  11.3591  11.4572
    12.2126  12.3400  12.6124  12.6627  13.0272  13.1177  13.2872  13.3703
    13.6605  13.7093  13.8780  13.9887

     the Fermi energy is    12.3849 ev

!    total energy              =   -2243.67495879 Ry
     Harris-Foulkes estimate   =   -2243.67495922 Ry
     estimated scf accuracy    <       0.00000050 Ry

     total all-electron energy =    -90248.018344 Ry

     The total energy is the sum of the following terms:

     one-electron contribution =     -31.97975022 Ry
     hartree contribution      =      41.76584739 Ry
     xc contribution           =    -257.53795709 Ry
     ewald contribution        =    -247.79081632 Ry
     one-center paw contrib.   =   -1748.12880745 Ry
     smearing contrib. (-TS)   =      -0.00347509 Ry

     convergence has been achieved in  10 iterations

     Forces acting on atoms (cartesian axes, Ry/au):

     atom    1 type  1   force =    -0.06833353    0.05181892   -0.92200759
     atom    2 type  1   force =     0.19202974    0.12909639   -0.87687621
     atom    3 type  1   force =     0.01447881   -0.90638863   -0.60350921
     atom    4 type  1   force =    -0.05993735   -0.99641889   -0.25277456
     atom    5 type  2   force =     0.05516746   -0.05580689    0.93585316
     atom    6 type  2   force =    -0.17512276   -0.14479624    0.88906511
     atom    7 type  2   force =     0.00893604    0.01879732   -0.01102848
     atom    8 type  2   force =    -0.00561137    0.00263544   -0.00261322
     atom    9 type  2   force =    -0.01759534    0.91266992    0.60743165
     atom   10 type  2   force =     0.05598830    0.98839266    0.23645936

     Total force =     2.808751     Total SCF correction =     0.003188

     Writing output data file 2411.save

     General routines

     Parallel routines

   This run was terminated on:  13:48:21  30Nov2022

   JOB DONE.
Removing 2411 from /home/shaharpit/tmp