     Program PWSCF v.6.1 (svn rev. 13369) starts on 30Nov2022 at 11:36:57

     Current dimensions of program PWSCF are:
     Max number of different atomic species (ntypx) = 10
     Max number of k-points (npk) =  40000
     Max angular momentum in pseudopotentials (lmaxx) =  3
               file Gd.rel-pbe-spdn-kjpaw_psl.1.0.0.UPF: wavefunction(s)  5P 5P renormalized

     Subspace diagonalization in iterative solution of the eigenvalue problem:
     a serial algorithm will be used

     bravais-lattice index     =            0
     lattice parameter (alat)  =       6.3398  a.u.
     unit-cell volume          =     352.3410 (a.u.)^3
     number of atoms/cell      =            2
     number of atomic types    =            1
     number of electrons       =        22.00
     number of Kohn-Sham states=           30
     kinetic-energy cutoff     =      50.0000  Ry
     charge density cutoff     =     200.0000  Ry
     convergence threshold     =      1.0E-06
     mixing beta               =       0.7000
     number of iterations used =            8  plain     mixing
     Exchange-correlation      =  SLA  PW   PBX  PBC ( 1  4  3  4 0 0)
     Non magnetic calculation with spin-orbit

     celldm(1)=   6.339842  celldm(2)=   0.000000  celldm(3)=   0.000000
     celldm(4)=   0.000000  celldm(5)=   0.000000  celldm(6)=   0.000000

     crystal axes: (cart. coord. in units of alat)
               a(1) = (   1.000000   0.000000   0.000000 )
               a(2) = (  -0.499985   0.866017   0.000000 )
               a(3) = (   0.000000   0.000000   1.596620 )

     reciprocal axes: (cart. coord. in units 2 pi/alat)
               b(1) = (  1.000000  0.577339  0.000000 )
               b(2) = (  0.000000  1.154712  0.000000 )
               b(3) = (  0.000000  0.000000  0.626323 )

     PseudoPot. # 1 for Gd read from file:
     /home/shaharpit/MeamGdH/dft/qe_potentials/Gd.rel-pbe-spdn-kjpaw_psl.1.0.0.UPF
     MD5 check sum: cf50ec46d1536b4a0251694df1946a53
     Pseudo is Projector augmented-wave + core cor, Zval = 11.0
     Generated using "atomic" code by A. Dal Corso  v.6.2.2
     Shape of augmentation charge: PSQ
     Using radial grid of 1263 points, 10 beta functions with:
                l(1) =   0
                l(2) =   0
                l(3) =   1
                l(4) =   1
                l(5) =   1
                l(6) =   1
                l(7) =   2
                l(8) =   2
                l(9) =   2
               l(10) =   2
     Q(r) pseudized with 0 coefficients

     atomic species   valence    mass     pseudopotential
        Gd            11.00   157.25000     Gd( 1.00)

      2 Sym. Ops., with inversion, found
          (note:  2 additional sym.ops. were found but ignored
           their fractional translations are incommensurate with FFT grid)

   Cartesian axes

     site n.     atom                  positions (alat units)
         1           Gd  tau(   1) = (   0.5000550   0.2886434   1.1974649  )
         2           Gd  tau(   2) = (  -0.0000401   0.5773734   0.3991550  )

     number of k points=    36  gaussian smearing, width (Ry)=  0.0100
                       cart. coord. in units 2pi/alat
        k(    1) = (   0.0000000   0.0000000   0.0000000), wk =   0.0156250
        k(    2) = (   0.0000000   0.0000000   0.1565808), wk =   0.0312500
        k(    3) = (   0.0000000   0.0000000  -0.3131616), wk =   0.0156250
        k(    4) = (   0.0000000   0.2886780   0.0000000), wk =   0.0312500
        k(    5) = (   0.0000000   0.2886780   0.1565808), wk =   0.0312500
        k(    6) = (   0.0000000   0.2886780  -0.3131616), wk =   0.0312500
        k(    7) = (   0.0000000  -0.5773560   0.0000000), wk =   0.0156250
        k(    8) = (   0.0000000  -0.5773560   0.1565808), wk =   0.0312500
        k(    9) = (   0.0000000  -0.5773560  -0.3131616), wk =   0.0156250
        k(   10) = (   0.2500000   0.1443347   0.0000000), wk =   0.0312500
        k(   11) = (   0.2500000   0.1443347   0.1565808), wk =   0.0312500
        k(   12) = (   0.2500000   0.1443347  -0.3131616), wk =   0.0312500
        k(   13) = (   0.2500000   0.4330127   0.0000000), wk =   0.0312500
        k(   14) = (   0.2500000   0.4330127   0.1565808), wk =   0.0312500
        k(   15) = (   0.2500000   0.4330127  -0.3131616), wk =   0.0312500
        k(   16) = (   0.2500000  -0.4330213   0.0000000), wk =   0.0312500
        k(   17) = (   0.2500000  -0.4330213   0.1565808), wk =   0.0312500
        k(   18) = (   0.2500000  -0.4330213  -0.3131616), wk =   0.0312500
        k(   19) = (   0.2500000  -0.1443433   0.0000000), wk =   0.0312500
        k(   20) = (   0.2500000  -0.1443433   0.1565808), wk =   0.0312500
        k(   21) = (   0.2500000  -0.1443433  -0.3131616), wk =   0.0312500
        k(   22) = (  -0.5000000  -0.2886694   0.0000000), wk =   0.0156250
        k(   23) = (  -0.5000000  -0.2886694   0.1565808), wk =   0.0312500
        k(   24) = (  -0.5000000  -0.2886694  -0.3131616), wk =   0.0156250
        k(   25) = (  -0.5000000   0.0000086   0.0000000), wk =   0.0312500
        k(   26) = (  -0.5000000   0.0000086   0.1565808), wk =   0.0312500
        k(   27) = (  -0.5000000   0.0000086  -0.3131616), wk =   0.0312500
        k(   28) = (  -0.5000000  -0.8660253   0.0000000), wk =   0.0156250
        k(   29) = (  -0.5000000  -0.8660253   0.1565808), wk =   0.0312500
        k(   30) = (  -0.5000000  -0.8660253  -0.3131616), wk =   0.0156250
        k(   31) = (   0.0000000  -0.2886780   0.1565808), wk =   0.0312500
        k(   32) = (  -0.2500000  -0.1443347   0.1565808), wk =   0.0312500
        k(   33) = (  -0.2500000  -0.4330127   0.1565808), wk =   0.0312500
        k(   34) = (  -0.2500000   0.4330213   0.1565808), wk =   0.0312500
        k(   35) = (  -0.2500000   0.1443433   0.1565808), wk =   0.0312500
        k(   36) = (   0.5000000  -0.0000086   0.1565808), wk =   0.0312500

     Initial potential from superposition of free atoms

     starting charge   21.96191, renormalised to   22.00000
     Starting wfc are   52 randomized atomic wfcs
     Checking if some PAW data can be deallocated...

     Self-consistent Calculation

     iteration #  1     ecut=    50.00 Ry     beta=0.70
     Davidson diagonalization with overlap
     ethr =  1.00E-02,  avg # of iterations =  2.0

     Threshold (ethr) on eigenvalues was too large:
     Diagonalizing with lowered threshold

     Davidson diagonalization with overlap
     ethr =  6.76E-05,  avg # of iterations =  2.8

     total energy              =   -1119.19153139 Ry
     Harris-Foulkes estimate   =   -1119.20411578 Ry
     estimated scf accuracy    <       0.01897844 Ry

[...]

     total energy              =   -1119.19531075 Ry
     Harris-Foulkes estimate   =   -1119.19531130 Ry
     estimated scf accuracy    <       0.00002102 Ry

     iteration #  4     ecut=    50.00 Ry     beta=0.70
     Davidson diagonalization with overlap
     ethr =  9.55E-08,  avg # of iterations =  1.6

     End of self-consistent calculation

          k = 0.0000 0.0000 0.0000 (  2093 PWs)   bands (ev):

   -30.2291 -30.2291 -30.0270 -30.0270 -11.0060 -11.0060 -10.4275 -10.4275
    -7.1435  -7.1435  -6.2075  -6.2075  -5.9617  -5.9617  -5.9176  -5.9176
     8.5694   8.5694  10.9756  10.9756  15.2024  15.2025  15.4283  15.4283
    15.5345  15.5345  15.9786  15.9788  16.0483  16.0483

[...]

          k =-0.5000-0.2887 0.0000 (  2124 PWs)   bands (ev):

[...]

          k =-0.2500 0.1443 0.1566 (  2100 PWs)   bands (ev):

[...]

          k = 0.5000-0.0000 0.1566 (  2104 PWs)   bands (ev):

   -30.0393 -30.0393 -29.9915 -29.9915 -11.0492 -11.0492 -10.9473 -10.9473
    -7.1570  -7.1570  -6.9442  -6.9442  -6.6900  -6.6900  -6.3683  -6.3683
    12.0962  12.0962  12.2189  12.2189  13.0667  13.0667  13.5883  13.5883
    14.6646  14.6646  14.8129  14.8129  15.7908  15.7908

     the Fermi energy is    13.4449 ev

!    total energy              =   -1119.19531207 Ry
     Harris-Foulkes estimate   =   -1119.19531198 Ry
     estimated scf accuracy    <       0.00000013 Ry

     total all-electron energy =    -45121.367018 Ry

     The total energy is the sum of the following terms:

     one-electron contribution =     -12.44434569 Ry
     hartree contribution      =      17.93480403 Ry
     xc contribution           =    -125.98139449 Ry
     ewald contribution        =    -124.66910090 Ry
     one-center paw contrib.   =    -874.03326166 Ry
     smearing contrib. (-TS)   =      -0.00201335 Ry

     convergence has been achieved in   4 iterations

     Writing output data file 2340.save

     General routines

     Parallel routines

   This run was terminated on:  11:38:11  30Nov2022

   JOB DONE.
Removing 2340 from /home/shaharpit/tmp