     Program PWSCF v.6.1 (svn rev. 13369) starts on 30Nov2022 at 11:36:57

     Current dimensions of program PWSCF are:
     Max number of different atomic species (ntypx) = 10
     Max number of k-points (npk) =  40000
     Max angular momentum in pseudopotentials (lmaxx) =  3
               file Gd.rel-pbe-spdn-kjpaw_psl.1.0.0.UPF: wavefunction(s)  5P 5P renormalized

     Subspace diagonalization in iterative solution of the eigenvalue problem:
     a serial algorithm will be used

     bravais-lattice index     =            0
     lattice parameter (alat)  =       6.5936  a.u.
     unit-cell volume          =     396.3685 (a.u.)^3
     number of atoms/cell      =            2
     number of atomic types    =            1
     number of electrons       =        22.00
     number of Kohn-Sham states=           30
     kinetic-energy cutoff     =      50.0000  Ry
     charge density cutoff     =     200.0000  Ry
     convergence threshold     =      1.0E-06
     mixing beta               =       0.7000
     number of iterations used =            8  plain     mixing
     Exchange-correlation      =  SLA  PW   PBX  PBC ( 1  4  3  4 0 0)
     Non magnetic calculation with spin-orbit

     celldm(1)=   6.593632  celldm(2)=   0.000000  celldm(3)=   0.000000
     celldm(4)=   0.000000  celldm(5)=   0.000000  celldm(6)=   0.000000

     crystal axes: (cart. coord. in units of alat)
               a(1) = (   1.000000   0.000000   0.000000 )
               a(2) = (  -0.500000   0.866015   0.000000 )
               a(3) = (   0.000000   0.000000   1.596612 )

     reciprocal axes: (cart. coord. in units 2 pi/alat)
               b(1) = (  1.000000  0.577357  0.000000 )
               b(2) = (  0.000000  1.154714  0.000000 )
               b(3) = (  0.000000  0.000000  0.626326 )

     PseudoPot. # 1 for Gd read from file:
     /home/shaharpit/MeamGdH/dft/qe_potentials/Gd.rel-pbe-spdn-kjpaw_psl.1.0.0.UPF
     MD5 check sum: cf50ec46d1536b4a0251694df1946a53
     Pseudo is Projector augmented-wave + core cor, Zval = 11.0
     Generated using "atomic" code by A. Dal Corso  v.6.2.2
     Shape of augmentation charge: PSQ
     Using radial grid of 1263 points, 10 beta functions with:
                l(1) =   0
                l(2) =   0
                l(3) =   1
                l(4) =   1
                l(5) =   1
                l(6) =   1
                l(7) =   2
                l(8) =   2
                l(9) =   2
               l(10) =   2
     Q(r) pseudized with 0 coefficients

     atomic species   valence    mass     pseudopotential
        Gd            11.00   157.25000     Gd( 1.00)

      4 Sym. Ops., with inversion, found ( 2 have fractional translation)

   Cartesian axes

     site n.     atom                  positions (alat units)
         1           Gd  tau(   1) = (   0.5000500   0.2886428   1.1974593  )
         2           Gd  tau(   2) = (  -0.0000500   0.5773723   0.3991531  )

     number of k points=    30  gaussian smearing, width (Ry)=  0.0100
                       cart. coord. in units 2pi/alat
        k(    1) = (   0.0000000   0.0000000   0.0000000), wk =   0.0156250
        k(    2) = (   0.0000000   0.0000000   0.1565815), wk =   0.0312500
        k(    3) = (   0.0000000   0.0000000  -0.3131630), wk =   0.0156250
        k(    4) = (   0.0000000   0.2886786   0.0000000), wk =   0.0312500
        k(    5) = (   0.0000000   0.2886786   0.1565815), wk =   0.0625000
        k(    6) = (   0.0000000   0.2886786  -0.3131630), wk =   0.0312500
        k(    7) = (   0.0000000  -0.5773571   0.0000000), wk =   0.0156250
        k(    8) = (   0.0000000  -0.5773571   0.1565815), wk =   0.0312500
        k(    9) = (   0.0000000  -0.5773571  -0.3131630), wk =   0.0156250
        k(   10) = (   0.2500000   0.1443393   0.0000000), wk =   0.0312500
        k(   11) = (   0.2500000   0.1443393   0.1565815), wk =   0.0625000
        k(   12) = (   0.2500000   0.1443393  -0.3131630), wk =   0.0312500
        k(   13) = (   0.2500000   0.4330178   0.0000000), wk =   0.0312500
        k(   14) = (   0.2500000   0.4330178   0.1565815), wk =   0.0625000
        k(   15) = (   0.2500000   0.4330178  -0.3131630), wk =   0.0312500
        k(   16) = (  -0.5000000  -0.2886786   0.0000000), wk =   0.0156250
        k(   17) = (  -0.5000000  -0.2886786   0.1565815), wk =   0.0312500
        k(   18) = (  -0.5000000  -0.2886786  -0.3131630), wk =   0.0156250
        k(   19) = (  -0.5000000   0.0000000   0.0000000), wk =   0.0312500
        k(   20) = (  -0.5000000   0.0000000   0.1565815), wk =   0.0625000
        k(   21) = (  -0.5000000   0.0000000  -0.3131630), wk =   0.0312500
        k(   22) = (  -0.2500000   0.1443393   0.0000000), wk =   0.0312500
        k(   23) = (  -0.2500000   0.1443393  -0.1565815), wk =   0.0625000
        k(   24) = (  -0.2500000   0.1443393   0.3131630), wk =   0.0312500
        k(   25) = (  -0.2500000   0.4330178   0.0000000), wk =   0.0312500
        k(   26) = (  -0.2500000   0.4330178  -0.1565815), wk =   0.0625000
        k(   27) = (  -0.2500000   0.4330178   0.3131630), wk =   0.0312500
        k(   28) = (   0.5000000  -0.2886786   0.0000000), wk =   0.0156250
        k(   29) = (   0.5000000  -0.2886786  -0.1565815), wk =   0.0312500
        k(   30) = (   0.5000000  -0.2886786   0.3131630), wk =   0.0156250

     Initial potential from superposition of free atoms

     starting charge   21.96191, renormalised to   22.00000
     Starting wfc are   52 randomized atomic wfcs
     Checking if some PAW data can be deallocated...

     Self-consistent Calculation

     iteration #  1     ecut=    50.00 Ry     beta=0.70
     Davidson diagonalization with overlap
     ethr =  1.00E-02,  avg # of iterations =  2.0

     Threshold (ethr) on eigenvalues was too large:
     Diagonalizing with lowered threshold

     Davidson diagonalization with overlap
     ethr =  5.99E-05,  avg # of iterations =  2.8

     total energy              =   -1119.21879372 Ry
     Harris-Foulkes estimate   =   -1119.22979641 Ry
     estimated scf accuracy    <       0.01757460 Ry

[...]

     total energy              =   -1119.22220102 Ry
     Harris-Foulkes estimate   =   -1119.22219995 Ry
     estimated scf accuracy    <       0.00002609 Ry

     iteration #  4     ecut=    50.00 Ry     beta=0.70
     Davidson diagonalization with overlap
     ethr =  1.19E-07,  avg # of iterations =  2.0

     End of self-consistent calculation

          k = 0.0000 0.0000 0.0000 (  2333 PWs)   bands (ev):

   -32.0839 -32.0839 -31.9598 -31.9598 -12.8359 -12.8359 -12.4545 -12.4545
    -8.8801  -8.8801  -8.2001  -8.2001  -8.0225  -8.0225  -7.9866  -7.9866
     6.9687   6.9687   9.5174   9.5174  13.4739  13.4739  13.6599  13.6601
    13.6950  13.6951  13.7735  13.7735  14.2010  14.2011

[...]

          k =-0.5000-0.2887 0.0000 (  2344 PWs)   bands (ev):

[...]

          k =-0.2500 0.4330 0.3132 (  2348 PWs)   bands (ev):

[...]

          k = 0.5000-0.2887 0.3132 (  2364 PWs)   bands (ev):

   -31.9531 -31.9531 -31.9531 -31.9531 -12.8510 -12.8510 -12.8510 -12.8510
    -8.8746  -8.8746  -8.8746  -8.8746  -8.3108  -8.3108  -8.3108  -8.3108
     9.7467   9.7467   9.7467   9.7467  11.6214  11.6214  11.6214  11.6214
    14.0575  14.0575  14.0576  14.0577  15.0264  15.0265

     the Fermi energy is    11.7873 ev

!    total energy              =   -1119.22220266 Ry
     Harris-Foulkes estimate   =   -1119.22220259 Ry
     estimated scf accuracy    <       0.00000012 Ry

     total all-electron energy =    -45121.393908 Ry

     The total energy is the sum of the following terms:

     one-electron contribution =     -19.31021143 Ry
     hartree contribution      =      19.78747680 Ry
     xc contribution           =    -125.79631921 Ry
     ewald contribution        =    -119.87082663 Ry
     one-center paw contrib.   =    -874.03010098 Ry
     smearing contrib. (-TS)   =      -0.00222122 Ry

     convergence has been achieved in   4 iterations

     Writing output data file 2341.save

     General routines

     Parallel routines

   This run was terminated on:  11:37:35  30Nov2022

   JOB DONE.
Removing 2341 from /home/shaharpit/tmp