     Program PWSCF v.6.1 (svn rev. 13369) starts on 30Nov2022 at 11:36:57

     Current dimensions of program PWSCF are:
     Max number of different atomic species (ntypx) = 10
     Max number of k-points (npk) =  40000
     Max angular momentum in pseudopotentials (lmaxx) =  3
               file Gd.rel-pbe-spdn-kjpaw_psl.1.0.0.UPF: wavefunction(s)  5P 5P renormalized

     Subspace diagonalization in iterative solution of the eigenvalue problem:
     a serial algorithm will be used

     bravais-lattice index     =            0
     lattice parameter (alat)  =       7.2573  a.u.
     unit-cell volume          =     528.5135 (a.u.)^3
     number of atoms/cell      =            2
     number of atomic types    =            1
     number of electrons       =        22.00
     number of Kohn-Sham states=           30
     kinetic-energy cutoff     =      50.0000  Ry
     charge density cutoff     =     200.0000  Ry
     convergence threshold     =      1.0E-06
     mixing beta               =       0.7000
     number of iterations used =            8  plain     mixing
     Exchange-correlation      =  SLA  PW   PBX  PBC ( 1  4  3  4 0 0)
     Non magnetic calculation with spin-orbit

     celldm(1)=   7.257304  celldm(2)=   0.000000  celldm(3)=   0.000000
     celldm(4)=   0.000000  celldm(5)=   0.000000  celldm(6)=   0.000000

     crystal axes: (cart. coord. in units of alat)
               a(1) = (   1.000000   0.000000   0.000000 )
               a(2) = (  -0.500000   0.866030   0.000000 )
               a(3) = (   0.000000   0.000000   1.596605 )

     reciprocal axes: (cart. coord. in units 2 pi/alat)
               b(1) = (  1.000000  0.577347  0.000000 )
               b(2) = (  0.000000  1.154695  0.000000 )
               b(3) = (  0.000000  0.000000  0.626329 )

     PseudoPot. # 1 for Gd read from file:
     /home/shaharpit/MeamGdH/dft/qe_potentials/Gd.rel-pbe-spdn-kjpaw_psl.1.0.0.UPF
     MD5 check sum: cf50ec46d1536b4a0251694df1946a53
     Pseudo is Projector augmented-wave + core cor, Zval = 11.0
     Generated using "atomic" code by A. Dal Corso  v.6.2.2
     Shape of augmentation charge: PSQ
     Using radial grid of 1263 points, 10 beta functions with:
                l(1) =   0
                l(2) =   0
                l(3) =   1
                l(4) =   1
                l(5) =   1
                l(6) =   1
                l(7) =   2
                l(8) =   2
                l(9) =   2
               l(10) =   2
     Q(r) pseudized with 0 coefficients

     atomic species   valence    mass     pseudopotential
        Gd            11.00   157.25000     Gd( 1.00)

      4 Sym. Ops., with inversion, found ( 2 have fractional translation)

   Cartesian axes

     site n.     atom                  positions (alat units)
         1           Gd  tau(   1) = (   0.5000500   0.2886477   1.1974534  )
         2           Gd  tau(   2) = (  -0.0000500   0.5773819   0.3991511  )

     number of k points=    30  gaussian smearing, width (Ry)=  0.0100
                       cart. coord. in units 2pi/alat
        k(    1) = (   0.0000000   0.0000000   0.0000000), wk =   0.0156250
        k(    2) = (   0.0000000   0.0000000   0.1565823), wk =   0.0312500
        k(    3) = (   0.0000000   0.0000000  -0.3131646), wk =   0.0156250
        k(    4) = (   0.0000000   0.2886737   0.0000000), wk =   0.0312500
        k(    5) = (   0.0000000   0.2886737   0.1565823), wk =   0.0625000
        k(    6) = (   0.0000000   0.2886737  -0.3131646), wk =   0.0312500
        k(    7) = (   0.0000000  -0.5773475   0.0000000), wk =   0.0156250
        k(    8) = (   0.0000000  -0.5773475   0.1565823), wk =   0.0312500
        k(    9) = (   0.0000000  -0.5773475  -0.3131646), wk =   0.0156250
        k(   10) = (   0.2500000   0.1443369   0.0000000), wk =   0.0312500
        k(   11) = (   0.2500000   0.1443369   0.1565823), wk =   0.0625000
        k(   12) = (   0.2500000   0.1443369  -0.3131646), wk =   0.0312500
        k(   13) = (   0.2500000   0.4330106   0.0000000), wk =   0.0312500
        k(   14) = (   0.2500000   0.4330106   0.1565823), wk =   0.0625000
        k(   15) = (   0.2500000   0.4330106  -0.3131646), wk =   0.0312500
        k(   16) = (  -0.5000000  -0.2886737   0.0000000), wk =   0.0156250
        k(   17) = (  -0.5000000  -0.2886737   0.1565823), wk =   0.0312500
        k(   18) = (  -0.5000000  -0.2886737  -0.3131646), wk =   0.0156250
        k(   19) = (  -0.5000000   0.0000000   0.0000000), wk =   0.0312500
        k(   20) = (  -0.5000000   0.0000000   0.1565823), wk =   0.0625000
        k(   21) = (  -0.5000000   0.0000000  -0.3131646), wk =   0.0312500
        k(   22) = (  -0.2500000   0.1443369   0.0000000), wk =   0.0312500
        k(   23) = (  -0.2500000   0.1443369  -0.1565823), wk =   0.0625000
        k(   24) = (  -0.2500000   0.1443369   0.3131646), wk =   0.0312500
        k(   25) = (  -0.2500000   0.4330106   0.0000000), wk =   0.0312500
        k(   26) = (  -0.2500000   0.4330106  -0.1565823), wk =   0.0625000
        k(   27) = (  -0.2500000   0.4330106   0.3131646), wk =   0.0312500
        k(   28) = (   0.5000000  -0.2886737   0.0000000), wk =   0.0156250
        k(   29) = (   0.5000000  -0.2886737  -0.1565823), wk =   0.0312500
        k(   30) = (   0.5000000  -0.2886737   0.3131646), wk =   0.0156250

     Check: negative/imaginary core charge=   -0.000002    0.000000

     Initial potential from superposition of free atoms

     starting charge   21.96191, renormalised to   22.00000
     Starting wfc are   52 randomized atomic wfcs
     Checking if some PAW data can be deallocated...

     Self-consistent Calculation

     iteration #  1     ecut=    50.00 Ry     beta=0.70
     Davidson diagonalization with overlap
     ethr =  1.00E-02,  avg # of iterations =  2.0

     Threshold (ethr) on eigenvalues was too large:
     Diagonalizing with lowered threshold

     Davidson diagonalization with overlap
     ethr =  6.34E-05,  avg # of iterations =  2.9

     total energy              =   -1119.21242022 Ry
     Harris-Foulkes estimate   =   -1119.22386158 Ry
     estimated scf accuracy    <       0.02094048 Ry

[...]

     total energy              =   -1119.21619086 Ry
     Harris-Foulkes estimate   =   -1119.21618720 Ry
     estimated scf accuracy    <       0.00004335 Ry

     iteration #  4     ecut=    50.00 Ry     beta=0.70
     Davidson diagonalization with overlap
     ethr =  1.97E-07,  avg # of iterations =  2.1

     End of self-consistent calculation

          k = 0.0000 0.0000 0.0000 (  3141 PWs)   bands (ev):

   -36.1953 -36.1953 -36.1613 -36.1613 -16.8962 -16.8962 -16.7637 -16.7637
   -12.7207 -12.7207 -12.4492 -12.4492 -12.3745 -12.3745 -12.3543 -12.3543
     3.9507   3.9507   6.5343   6.5343   9.1827   9.1827   9.8243   9.8243
    10.0395  10.0396  10.0474  10.0474  10.3134  10.3135

[...]

          k =-0.5000-0.2887 0.0000 (  3154 PWs)   bands (ev):

[...]

          k =-0.2500 0.4330 0.3132 (  3160 PWs)   bands (ev):

[...]

          k = 0.5000-0.2887 0.3132 (  3176 PWs)   bands (ev):

   -36.1598 -36.1598 -36.1598 -36.1598 -16.9036 -16.9036 -16.9036 -16.9036
   -12.7160 -12.7160 -12.7160 -12.7160 -12.4879 -12.4879 -12.4879 -12.4879
     6.8000   6.8000   6.8000   6.8000   8.3891   8.3891   8.3891   8.3891
     9.6553   9.6553   9.6553   9.6554  10.9185  10.9185

     the Fermi energy is     8.3418 ev

!    total energy              =   -1119.21619399 Ry
     Harris-Foulkes estimate   =   -1119.21619386 Ry
     estimated scf accuracy    <       0.00000016 Ry

     total all-electron energy =    -45121.387900 Ry

     The total energy is the sum of the following terms:

     one-electron contribution =     -35.23697071 Ry
     hartree contribution      =      24.36271890 Ry
     xc contribution           =    -125.40697325 Ry
     ewald contribution        =    -108.90834669 Ry
     one-center paw contrib.   =    -874.02324688 Ry
     smearing contrib. (-TS)   =      -0.00337537 Ry

     convergence has been achieved in   4 iterations

     Writing output data file 2346.save

     General routines

     Parallel routines

   This run was terminated on:  11:37:58  30Nov2022

   JOB DONE.
Removing 2346 from /home/shaharpit/tmp