     Program PWSCF v.6.1 (svn rev. 13369) starts on  3Jul2022 at 12:25:51

[...]

     Program PWSCF v.6.1 (svn rev. 13369) starts on  3Jul2022 at 12:25:51

     Current dimensions of program PWSCF are:
     Max number of different atomic species (ntypx) = 10
     Max number of k-points (npk) =  40000
     Max angular momentum in pseudopotentials (lmaxx) =  3

[...]

     Current dimensions of program PWSCF are:
     Max number of different atomic species (ntypx) = 10
     Max number of k-points (npk) =  40000
     Max angular momentum in pseudopotentials (lmaxx) =  3
Warning: card H 1.00794 H.PBE-RRKJUS_PSL.1.0.0.UPF ignored

     Current dimensions of program PWSCF are:
     Max number of different atomic species (ntypx) = 10
     Max number of k-points (npk) =  40000
     Max angular momentum in pseudopotentials (lmaxx) =  3
Warning: card &CELL ignored
Warning: card / ignored
Warning: card H 1.00794 H.PBE-RRKJUS_PSL.1.0.0.UPF ignored

     Current dimensions of program PWSCF are:
     Max number of different atomic species (ntypx) = 10
     Max number of k-points (npk) =  40000
     Max angular momentum in pseudopotentials (lmaxx) =  3
Warning: card &CELL ignored
Warning: card / ignored
Warning: card &CELL ignored
Warning: card / ignored
Warning: card &CELL ignored
Warning: card / ignored
Warning: card H 1.00794 H.PBE-RRKJUS_PSL.1.0.0.UPF ignored
Warning: card &CELL ignored
Warning: card / ignored
Warning: card H 1.00794 H.PBE-RRKJUS_PSL.1.0.0.UPF ignored
Warning: card H 1.00794 H.PBE-RRKJUS_PSL.1.0.0.UPF ignored
Warning: card H 1.00794 H.PBE-RRKJUS_PSL.1.0.0.UPF ignored

     Current dimensions of program PWSCF are:
     Max number of different atomic species (ntypx) = 10
     Max number of k-points (npk) =  40000

     Current dimensions of program PWSCF are:
     Max number of different atomic species (ntypx) = 10
     Max angular momentum in pseudopotentials (lmaxx) =  3
     Max number of k-points (npk) =  40000
     Max angular momentum in pseudopotentials (lmaxx) =  3

     Current dimensions of program PWSCF are:
     Max number of different atomic species (ntypx) = 10
     Max number of k-points (npk) =  40000
     Max angular momentum in pseudopotentials (lmaxx) =  3

[...]

     Current dimensions of program PWSCF are:
     Max number of different atomic species (ntypx) = 10
     Max number of k-points (npk) =  40000
     Max angular momentum in pseudopotentials (lmaxx) =  3
Warning: card &CELL ignored
Warning: card / ignored
Warning: card H 1.00794 H.PBE-RRKJUS_PSL.1.0.0.UPF ignored

     Current dimensions of program PWSCF are:
     Max number of different atomic species (ntypx) = 10
     Max number of k-points (npk) =  40000
     Max angular momentum in pseudopotentials (lmaxx) =  3
               file Gd.GGA-PBE-paw-v1.0.UPF: wavefunction(s)  Xn Xn Xn Xn Xn Xn renormalized
               file Gd.GGA-PBE-paw-v1.0.UPF: wavefunction(s)  Xn Xn Xn Xn Xn Xn renormalized

     Subspace diagonalization in iterative solution of the eigenvalue problem:
     a serial algorithm will be used

               file Gd.GGA-PBE-paw-v1.0.UPF: wavefunction(s)  Xn Xn Xn Xn Xn Xn renormalized

[...]

     bravais-lattice index     =            0
     lattice parameter (alat)  =       7.2573  a.u.
     unit-cell volume          =     528.5135 (a.u.)^3
     number of atoms/cell      =            2
     number of atomic types    =            1
     number of electrons       =        36.00
     number of Kohn-Sham states=           22
     kinetic-energy cutoff     =      50.0000  Ry
     charge density cutoff     =     200.0000  Ry
     convergence threshold     =      1.0E-06
     mixing beta               =       0.7000
     number of iterations used =            8  plain     mixing
     Exchange-correlation      = SLA PW PBX PBC ( 1  4  3  4 0 0)
     nstep                     =          150

     celldm(1)=   7.257304  celldm(2)=   0.000000  celldm(3)=   0.000000
     celldm(4)=   0.000000  celldm(5)=   0.000000  celldm(6)=   0.000000

     crystal axes: (cart. coord. in units of alat)
               a(1) = (   1.000000   0.000000   0.000000 )
               a(2) = (  -0.500000   0.866030   0.000000 )
               a(3) = (   0.000000   0.000000   1.596605 )

     reciprocal axes: (cart. coord. in units 2 pi/alat)
               b(1) = (  1.000000  0.577347  0.000000 )
               b(2) = (  0.000000  1.154695  0.000000 )
               b(3) = (  0.000000  0.000000  0.626329 )

     PseudoPot. # 1 for Gd read from file:
     /home/shaharpit/AcHProject/meam_fit/dft/qe_potentials/Gd.GGA-PBE-paw-v1.0.UPF
     MD5 check sum: 3e8e0d208da550914ae52eaf991d13de
     Pseudo is Projector augmented-wave + core cor, Zval = 18.0
     Generated using ATOMPAW code
     Shape of augmentation charge: BESSEL
     Using radial grid of 1110 points,  8 beta functions with:
                l(1) =   0
                l(2) =   0
                l(3) =   1
                l(4) =   1
                l(5) =   2
                l(6) =   2
                l(7) =   3
                l(8) =   3
     Q(r) pseudized with 0 coefficients

     atomic species   valence    mass     pseudopotential
        Gd            18.00   157.25000     Gd( 1.00)

      4 Sym. Ops., with inversion, found ( 2 have fractional translation)

   Cartesian axes

     site n.     atom                  positions (alat units)
         1           Gd  tau(   1) = (   0.5000500   0.2886477   1.1974534  )
         2           Gd  tau(   2) = (  -0.0000500   0.5773819   0.3991511  )

     number of k points=    30  gaussian smearing, width (Ry)=  0.0100
                       cart. coord. in units 2pi/alat
        k(    1) = (   0.0000000   0.0000000   0.0000000), wk =   0.0312500
        k(    2) = (   0.0000000   0.0000000   0.1565823), wk =   0.0625000
        k(    3) = (   0.0000000   0.0000000  -0.3131646), wk =   0.0312500
        k(    4) = (   0.0000000   0.2886737   0.0000000), wk =   0.0625000
        k(    5) = (   0.0000000   0.2886737   0.1565823), wk =   0.1250000
        k(    6) = (   0.0000000   0.2886737  -0.3131646), wk =   0.0625000
        k(    7) = (   0.0000000  -0.5773475   0.0000000), wk =   0.0312500
        k(    8) = (   0.0000000  -0.5773475   0.1565823), wk =   0.0625000
        k(    9) = (   0.0000000  -0.5773475  -0.3131646), wk =   0.0312500
        k(   10) = (   0.2500000   0.1443369   0.0000000), wk =   0.0625000
        k(   11) = (   0.2500000   0.1443369   0.1565823), wk =   0.1250000
        k(   12) = (   0.2500000   0.1443369  -0.3131646), wk =   0.0625000
        k(   13) = (   0.2500000   0.4330106   0.0000000), wk =   0.0625000
        k(   14) = (   0.2500000   0.4330106   0.1565823), wk =   0.1250000
        k(   15) = (   0.2500000   0.4330106  -0.3131646), wk =   0.0625000
        k(   16) = (  -0.5000000  -0.2886737   0.0000000), wk =   0.0312500
        k(   17) = (  -0.5000000  -0.2886737   0.1565823), wk =   0.0625000
        k(   18) = (  -0.5000000  -0.2886737  -0.3131646), wk =   0.0312500
        k(   19) = (  -0.5000000   0.0000000   0.0000000), wk =   0.0625000
        k(   20) = (  -0.5000000   0.0000000   0.1565823), wk =   0.1250000
        k(   21) = (  -0.5000000   0.0000000  -0.3131646), wk =   0.0625000
        k(   22) = (  -0.2500000   0.1443369   0.0000000), wk =   0.0625000
        k(   23) = (  -0.2500000   0.1443369  -0.1565823), wk =   0.1250000
        k(   24) = (  -0.2500000   0.1443369   0.3131646), wk =   0.0625000
        k(   25) = (  -0.2500000   0.4330106   0.0000000), wk =   0.0625000
        k(   26) = (  -0.2500000   0.4330106  -0.1565823), wk =   0.1250000
        k(   27) = (  -0.2500000   0.4330106   0.3131646), wk =   0.0625000
        k(   28) = (   0.5000000  -0.2886737   0.0000000), wk =   0.0312500
        k(   29) = (   0.5000000  -0.2886737  -0.1565823), wk =   0.0625000
        k(   30) = (   0.5000000  -0.2886737   0.3131646), wk =   0.0312500

[...]

               b(1) = (  1.000000  0.577347  0.000000 )
               b(2) = (  0.000000  1.154695  0.000000 )
               b(3) = (  0.000000  0.000000  0.626329 )

     PseudoPot. # 1 for Gd read from file:
     /home/shaharpit/AcHProject/meam_fit/dft/qe_potentials/Gd.GGA-PBE-paw-v1.0.UPF
     MD5 check sum: 3e8e0d208da550914ae52eaf991d13de
     Pseudo is Projector augmented-wave + core cor, Zval = 18.0
     Generated using ATOMPAW code
     Shape of augmentation charge: BESSEL
     Using radial grid of 1110 points,  8 beta functions with:
                l(1) =   0

     bravais-lattice index     =            0
                l(2) =   0
                l(3) =   1
                l(4) =   1
     lattice parameter (alat)  =       7.2573  a.u.
     unit-cell volume          =     528.5135 (a.u.)^3
     number of atoms/cell      =            2
     number of atomic types    =            1
     number of electrons       =        36.00
     number of Kohn-Sham states=           22
                l(5) =   2
                l(6) =   2
                l(7) =   3
                l(8) =   3
     Q(r) pseudized with 0 coefficients

     atomic species   valence    mass     pseudopotential
     kinetic-energy cutoff     =      50.0000  Ry
     charge density cutoff     =     200.0000  Ry
     convergence threshold     =      1.0E-06
        Gd            18.00   157.25000     Gd( 1.00)

[...]

     mixing beta               =       0.7000
     number of iterations used =            8  plain     mixing
     Exchange-correlation      = SLA PW PBX PBC ( 1  4  3  4 0 0)
     nstep                     =          150

[...]

     site n.     atom                  positions (alat units)
         1           Gd  tau(   1) = (   0.5000500   0.2886477   1.1974534  )
     celldm(1)=   7.257304  celldm(2)=   0.000000  celldm(3)=   0.000000
     celldm(4)=   0.000000  celldm(5)=   0.000000  celldm(6)=   0.000000

         2           Gd  tau(   2) = (  -0.0000500   0.5773819   0.3991511  )

     number of k points=    30  gaussian smearing, width (Ry)=  0.0100
                       cart. coord. in units 2pi/alat
     crystal axes: (cart. coord. in units of alat)
               a(1) = (   1.000000   0.000000   0.000000 )
               a(2) = (  -0.500000   0.866030   0.000000 )
               a(3) = (   0.000000   0.000000   1.596605 )

        k(    1) = (   0.0000000   0.0000000   0.0000000), wk =   0.0312500
        k(    2) = (   0.0000000   0.0000000   0.1565823), wk =   0.0625000
        k(    3) = (   0.0000000   0.0000000  -0.3131646), wk =   0.0312500
        k(    4) = (   0.0000000   0.2886737   0.0000000), wk =   0.0625000
        k(    5) = (   0.0000000   0.2886737   0.1565823), wk =   0.1250000
     reciprocal axes: (cart. coord. in units 2 pi/alat)
               b(1) = (  1.000000  0.577347  0.000000 )
               b(2) = (  0.000000  1.154695  0.000000 )
        k(    6) = (   0.0000000   0.2886737  -0.3131646), wk =   0.0625000
        k(    7) = (   0.0000000  -0.5773475   0.0000000), wk =   0.0312500
        k(    8) = (   0.0000000  -0.5773475   0.1565823), wk =   0.0625000
        k(    9) = (   0.0000000  -0.5773475  -0.3131646), wk =   0.0312500
[...]
     ethr =  3.30E-09,  avg # of iterations = 14.7
     c_bands:  2 eigenvalues not converged
     c_bands:  2 eigenvalues not converged
     ethr =  3.30E-09,  avg # of iterations = 14.9
     c_bands:  2 eigenvalues not converged
     c_bands:  2 eigenvalues not converged
     c_bands:  1 eigenvalues not converged
     c_bands:  2 eigenvalues not converged
     ethr =  3.30E-09,  avg # of iterations = 14.9
     c_bands:  2 eigenvalues not converged
     ethr =  3.30E-09,  avg # of iterations = 12.2
     c_bands:  2 eigenvalues not converged
     ethr =  3.30E-09,  avg # of iterations = 12.2

[...]

     iteration #372     ecut=    50.00 Ry     beta=0.70
     Davidson diagonalization with overlap
     c_bands:  1 eigenvalues not converged
     c_bands:  2 eigenvalues not converged
     c_bands:  2 eigenvalues not converged
     ethr =  3.30E-09,  avg # of iterations = 11.1
     c_bands:  2 eigenvalues not converged
     ethr =  3.30E-09,  avg # of iterations = 12.2
     c_bands:  2 eigenvalues not converged
     ethr =  3.30E-09,  avg # of iterations = 12.2
     ethr =  3.30E-09,  avg # of iterations =  7.7
     ethr =  3.30E-09,  avg # of iterations =  8.8
     c_bands:  2 eigenvalues not converged
     c_bands:  2 eigenvalues not converged
     ethr =  3.30E-09,  avg # of iterations =  7.7
     c_bands:  1 eigenvalues not converged
     c_bands:  2 eigenvalues not converged
     c_bands:  2 eigenvalues not converged
     c_bands:  2 eigenvalues not converged
     ethr =  3.30E-09,  avg # of iterations = 12.2
     c_bands:  1 eigenvalues not converged

[...]

     iteration #374     ecut=    50.00 Ry     beta=0.70
     Davidson diagonalization with overlap
     ethr =  3.30E-09,  avg # of iterations =  7.4
     c_bands:  2 eigenvalues not converged
     ethr =  3.30E-09,  avg # of iterations = 11.6
     c_bands:  2 eigenvalues not converged
     ethr =  3.30E-09,  avg # of iterations = 11.6
     c_bands:  1 eigenvalues not converged
     ethr =  3.30E-09,  avg # of iterations =  7.4

[...]

     iteration #375     ecut=    50.00 Ry     beta=0.70
     c_bands:  1 eigenvalues not converged
     Davidson diagonalization with overlap
     ethr =  3.30E-09,  avg # of iterations =  7.4
     c_bands:  2 eigenvalues not converged
     c_bands:  2 eigenvalues not converged
     ethr =  3.30E-09,  avg # of iterations = 12.8

[...]

     iteration #388     ecut=    50.00 Ry     beta=0.70
     Davidson diagonalization with overlap
     ethr =  3.30E-09,  avg # of iterations =  7.4
     c_bands:  1 eigenvalues not converged
     c_bands:  1 eigenvalues not converged
     c_bands:  2 eigenvalues not converged
     ethr =  3.30E-09,  avg # of iterations =  7.4
     c_bands:  1 eigenvalues not converged
     c_bands:  1 eigenvalues not converged
     c_bands:  2 eigenvalues not converged
     c_bands:  3 eigenvalues not converged
     c_bands:  1 eigenvalues not converged
     c_bands:  2 eigenvalues not converged
     ethr =  3.30E-09,  avg # of iterations = 12.8
     c_bands:  1 eigenvalues not converged
     c_bands:  2 eigenvalues not converged
     ethr =  3.30E-09,  avg # of iterations =  7.4
     c_bands:  2 eigenvalues not converged
     ethr =  3.30E-09,  avg # of iterations = 13.5
     c_bands:  2 eigenvalues not converged
     ethr =  3.30E-09,  avg # of iterations = 13.9

[...]

     iteration #394     ecut=    50.00 Ry     beta=0.70
     Davidson diagonalization with overlap
     ethr =  3.30E-09,  avg # of iterations =  7.7
     c_bands:  1 eigenvalues not converged
     c_bands:  1 eigenvalues not converged
     ethr =  3.30E-09,  avg # of iterations =  2.4
     c_bands:  2 eigenvalues not converged
     ethr =  3.30E-09,  avg # of iterations = 13.5
     c_bands:  2 eigenvalues not converged
     ethr =  3.30E-09,  avg # of iterations = 13.5
     c_bands:  1 eigenvalues not converged
     c_bands:  2 eigenvalues not converged

[...]

     total energy              =   -1366.89670073 Ry
     Harris-Foulkes estimate   =   -1366.89672226 Ry
     estimated scf accuracy    <       0.00002692 Ry
     c_bands:  1 eigenvalues not converged

[...]

     iteration #413     ecut=    50.00 Ry     beta=0.70
     Davidson diagonalization with overlap
     c_bands:  1 eigenvalues not converged
     c_bands:  2 eigenvalues not converged
     c_bands:  2 eigenvalues not converged
     c_bands:  4 eigenvalues not converged
     ethr =  3.30E-09,  avg # of iterations = 14.2
     c_bands:  1 eigenvalues not converged
     c_bands:  1 eigenvalues not converged
     c_bands:  2 eigenvalues not converged
     c_bands:  1 eigenvalues not converged
     c_bands:  2 eigenvalues not converged
     c_bands:  2 eigenvalues not converged
     ethr =  3.30E-09,  avg # of iterations = 14.2
     c_bands:  2 eigenvalues not converged
     c_bands:  1 eigenvalues not converged
     ethr =  3.30E-09,  avg # of iterations = 13.1
     c_bands:  2 eigenvalues not converged
     c_bands:  2 eigenvalues not converged
     c_bands:  2 eigenvalues not converged
     c_bands:  1 eigenvalues not converged
     c_bands:  3 eigenvalues not converged
     c_bands:  2 eigenvalues not converged
     c_bands:  2 eigenvalues not converged
     c_bands:  2 eigenvalues not converged
     c_bands:  1 eigenvalues not converged
     c_bands:  1 eigenvalues not converged
     c_bands:  4 eigenvalues not converged
     ethr =  3.30E-09,  avg # of iterations =  4.4

[...]

     iteration #415     ecut=    50.00 Ry     beta=0.70

[...]

     Davidson diagonalization with overlap
     iteration #414     ecut=    50.00 Ry     beta=0.70
     Davidson diagonalization with overlap
     c_bands:  1 eigenvalues not converged
     c_bands:  1 eigenvalues not converged

[...]

     iteration #420     ecut=    50.00 Ry     beta=0.70
     Davidson diagonalization with overlap
     c_bands:  1 eigenvalues not converged
     c_bands:  1 eigenvalues not converged
     c_bands:  2 eigenvalues not converged
     ethr =  3.30E-09,  avg # of iterations = 15.4
     c_bands:  1 eigenvalues not converged
     ethr =  3.30E-09,  avg # of iterations = 14.2
     c_bands:  2 eigenvalues not converged
     ethr =  3.30E-09,  avg # of iterations = 16.5
     c_bands:  2 eigenvalues not converged
     c_bands:  2 eigenvalues not converged
     ethr =  3.30E-09,  avg # of iterations = 11.7
     ethr =  3.30E-09,  avg # of iterations = 14.2
     c_bands:  2 eigenvalues not converged
     c_bands:  2 eigenvalues not converged

[...]

     iteration #416     ecut=    50.00 Ry     beta=0.70
     Davidson diagonalization with overlap
     c_bands:  2 eigenvalues not converged
     c_bands:  1 eigenvalues not converged
     c_bands:  1 eigenvalues not converged
     ethr =  3.30E-09,  avg # of iterations = 11.7
     c_bands:  2 eigenvalues not converged
     ethr =  3.30E-09,  avg # of iterations = 10.5
     c_bands:  2 eigenvalues not converged
     c_bands:  2 eigenvalues not converged
     c_bands:  1 eigenvalues not converged
     c_bands:  2 eigenvalues not converged
     ethr =  3.30E-09,  avg # of iterations =  8.6
     c_bands:  1 eigenvalues not converged
     c_bands:  2 eigenvalues not converged

[...]

     iteration #425     ecut=    50.00 Ry     beta=0.70
     Davidson diagonalization with overlap
     c_bands:  2 eigenvalues not converged
     ethr =  3.30E-09,  avg # of iterations = 11.7
     c_bands:  2 eigenvalues not converged
     ethr =  3.30E-09,  avg # of iterations =  7.7
     c_bands:  2 eigenvalues not converged

[...]

     iteration #426     ecut=    50.00 Ry     beta=0.70
     Davidson diagonalization with overlap
     c_bands:  1 eigenvalues not converged
     ethr =  3.30E-09,  avg # of iterations = 10.9
     c_bands:  2 eigenvalues not converged
     ethr =  3.30E-09,  avg # of iterations = 11.7
     c_bands:  3 eigenvalues not converged
     c_bands:  2 eigenvalues not converged
     c_bands:  2 eigenvalues not converged
     ethr =  3.30E-09,  avg # of iterations = 11.7
     ethr =  3.30E-09,  avg # of iterations =  8.5
     c_bands:  2 eigenvalues not converged
     c_bands:  1 eigenvalues not converged
     c_bands:  1 eigenvalues not converged
     ethr =  3.30E-09,  avg # of iterations = 10.9
     c_bands:  2 eigenvalues not converged
     ethr =  3.30E-09,  avg # of iterations =  5.7
     ethr =  3.30E-09,  avg # of iterations =  7.9
     ethr =  3.30E-09,  avg # of iterations =  8.5

[...]

     iteration #426     ecut=    50.00 Ry     beta=0.70
     Davidson diagonalization with overlap
     c_bands:  1 eigenvalues not converged
     ethr =  3.30E-09,  avg # of iterations = 10.9
     c_bands:  3 eigenvalues not converged
     ethr =  3.30E-09,  avg # of iterations =  8.0
     ethr =  3.30E-09,  avg # of iterations =  8.5
     c_bands:  1 eigenvalues not converged
     ethr =  3.30E-09,  avg # of iterations = 11.7

[...]

     iteration #429     ecut=    50.00 Ry     beta=0.70
     Davidson diagonalization with overlap
     ethr =  3.30E-09,  avg # of iterations =  8.6
     c_bands:  1 eigenvalues not converged
     ethr =  3.30E-09,  avg # of iterations =  8.7
     c_bands:  2 eigenvalues not converged
     ethr =  3.30E-09,  avg # of iterations = 11.7
     ethr =  3.30E-09,  avg # of iterations =  7.7

[...]

     iteration #431     ecut=    50.00 Ry     beta=0.70
     Davidson diagonalization with overlap
     ethr =  3.30E-09,  avg # of iterations =  8.6
     ethr =  3.30E-09,  avg # of iterations =  7.8
     ethr =  3.30E-09,  avg # of iterations =  8.6
     c_bands:  1 eigenvalues not converged
     ethr =  3.30E-09,  avg # of iterations = 10.9
     c_bands:  1 eigenvalues not converged
     ethr =  3.30E-09,  avg # of iterations =  8.7
     c_bands:  1 eigenvalues not converged

[...]

     iteration #431     ecut=    50.00 Ry     beta=0.70
     Davidson diagonalization with overlap
     c_bands:  1 eigenvalues not converged
     ethr =  3.30E-09,  avg # of iterations =  8.7
     c_bands:  2 eigenvalues not converged

[...]

     iteration #430     ecut=    50.00 Ry     beta=0.70
     Davidson diagonalization with overlap
     ethr =  3.30E-09,  avg # of iterations =  5.7
     ethr =  3.30E-09,  avg # of iterations =  7.8
     c_bands:  1 eigenvalues not converged
     ethr =  3.30E-09,  avg # of iterations =  8.7

[...]

     End of self-consistent calculation

          k = 0.0000 0.0000 0.0000 (  3141 PWs)   bands (ev):

   -32.6586 -32.6184 -10.9373 -10.5163 -10.5160 -10.4416 -10.4414 -10.4172
     5.7257   8.4302   9.6625   9.7150   9.8015   9.8025   9.8051   9.8235
     9.8270   9.8596   9.8632   9.8800   9.8835   9.8838

[...]

          k =-0.5000-0.2887 0.0000 (  3154 PWs)   bands (ev):

[...]

     the Fermi energy is     9.8679 ev

!    total energy              =   -1366.89674168 Ry
     Harris-Foulkes estimate   =   -1366.89674109 Ry
     estimated scf accuracy    <       0.00000098 Ry

     total all-electron energy =     -1366.896742 Ry

     The total energy is the sum of the following terms:

     one-electron contribution =    -240.15234235 Ry
     hartree contribution      =     141.49894289 Ry
     xc contribution           =     -45.00505045 Ry
     ewald contribution        =    -291.62234973 Ry
     one-center paw contrib.   =    -931.56690932 Ry
     smearing contrib. (-TS)   =      -0.04903273 Ry

     convergence has been achieved in 432 iterations

[...]

     iteration #431     ecut=    50.00 Ry     beta=0.70
     Davidson diagonalization with overlap
     c_bands:  1 eigenvalues not converged
     ethr =  3.30E-09,  avg # of iterations =  8.7
     c_bands:  1 eigenvalues not converged
     ethr =  3.30E-09,  avg # of iterations =  8.7

     Forces acting on atoms (cartesian axes, Ry/au):

     atom    1 type  1   force =    -0.00004940    0.00018229    0.00000000
     atom    2 type  1   force =     0.00004940   -0.00018229    0.00000000

     Total force =     0.000267     Total SCF correction =     0.000465
     SCF correction compared to forces is large: reduce conv_thr to get better values

     BFGS Geometry Optimization

     bfgs converged in   1 scf cycles and   0 bfgs steps
     (criteria: energy <  1.0E-04 Ry, force <  1.0E-03 Ry/Bohr)

     End of BFGS Geometry Optimization

     Final energy   =   -1366.8967416819 Ry
Begin final coordinates

ATOMIC_POSITIONS (crystal)
Gd       0.666700000   0.333300000   0.750000000
Gd       0.333300000   0.666700000   0.250000000
End final coordinates

     Writing output data file 2244.save

[...]

     iteration #431     ecut=    50.00 Ry     beta=0.70
     Davidson diagonalization with overlap
     c_bands:  1 eigenvalues not converged
     ethr =  3.30E-09,  avg # of iterations =  8.7
     ethr =  3.30E-09,  avg # of iterations =  3.2
     ethr =  3.30E-09,  avg # of iterations =  7.7

[...]

     iteration #432     ecut=    50.00 Ry     beta=0.70
     Davidson diagonalization with overlap
     ethr =  3.30E-09,  avg # of iterations =  7.8
     c_bands:  2 eigenvalues not converged

[...]

     convergence has been achieved in 432 iterations
     ethr =  3.30E-09,  avg # of iterations =  7.9
     ethr =  3.30E-09,  avg # of iterations =  7.8

[...]

     convergence has been achieved in 432 iterations

[...]

     Forces acting on atoms (cartesian axes, Ry/au):

     atom    1 type  1   force =    -0.00004940    0.00018229    0.00000000
     atom    2 type  1   force =     0.00004940   -0.00018229    0.00000000

     Total force =     0.000267     Total SCF correction =     0.000465
     SCF correction compared to forces is large: reduce conv_thr to get better values

     BFGS Geometry Optimization

     bfgs converged in   1 scf cycles and   0 bfgs steps
     (criteria: energy <  1.0E-04 Ry, force <  1.0E-03 Ry/Bohr)

     End of BFGS Geometry Optimization

     Final energy   =   -1366.8967416819 Ry
Begin final coordinates

ATOMIC_POSITIONS (crystal)
Gd       0.666700000   0.333300000   0.750000000
Gd       0.333300000   0.666700000   0.250000000
End final coordinates

     Writing output data file 2244.save

[...]

     iteration #432     ecut=    50.00 Ry     beta=0.70
     Davidson diagonalization with overlap
     ethr =  3.30E-09,  avg # of iterations =  8.5
     c_bands:  1 eigenvalues not converged
     ethr =  3.30E-09,  avg # of iterations = 10.9
     ethr =  3.30E-09,  avg # of iterations =  3.2
     c_bands:  1 eigenvalues not converged
     c_bands:  1 eigenvalues not converged

[...]

     convergence has been achieved in 432 iterations
     ethr =  3.30E-09,  avg # of iterations =  3.2
     c_bands:  2 eigenvalues not converged
     c_bands:  2 eigenvalues not converged
     c_bands:  2 eigenvalues not converged

[...]

     iteration #432     ecut=    50.00 Ry     beta=0.70
     Davidson diagonalization with overlap

[...]

     iteration #432     ecut=    50.00 Ry     beta=0.70
     Davidson diagonalization with overlap
     ethr =  3.30E-09,  avg # of iterations =  7.8
     ethr =  3.30E-09,  avg # of iterations =  3.2

[...]

     convergence has been achieved in 432 iterations
     ethr =  3.30E-09,  avg # of iterations =  3.2
     c_bands:  2 eigenvalues not converged

     total energy              =   -1366.89673933 Ry
     Harris-Foulkes estimate   =   -1366.89673758 Ry
     estimated scf accuracy    <       0.00000346 Ry

     iteration #432     ecut=    50.00 Ry     beta=0.70
     Davidson diagonalization with overlap
     c_bands:  1 eigenvalues not converged

     End of self-consistent calculation

[...]

          k =-0.2500 0.4330 0.3132 (  3160 PWs)   bands (ev):

[...]

          k = 0.5000-0.2887 0.3132 (  3176 PWs)   bands (ev):

   -32.6166 -32.6166 -10.9042 -10.9042 -10.5624 -10.5624 -10.5522 -10.5522
     8.6884   8.6884   9.7342   9.7342   9.7773   9.7773   9.8050   9.8050
     9.8077   9.8077   9.8623   9.8623   9.9252   9.9252

     the Fermi energy is     9.8679 ev

!    total energy              =   -1366.89674168 Ry
     Harris-Foulkes estimate   =   -1366.89674109 Ry
     estimated scf accuracy    <       0.00000098 Ry

     total all-electron energy =     -1366.896742 Ry

     The total energy is the sum of the following terms:

     one-electron contribution =    -240.15234235 Ry
     hartree contribution      =     141.49894289 Ry
     xc contribution           =     -45.00505045 Ry
     ewald contribution        =    -291.62234973 Ry
     one-center paw contrib.   =    -931.56690932 Ry
     smearing contrib. (-TS)   =      -0.04903273 Ry

     convergence has been achieved in 432 iterations
     c_bands:  1 eigenvalues not converged
     ethr =  3.30E-09,  avg # of iterations = 10.9

     General routines

     Parallel routines
     c_bands:  1 eigenvalues not converged
     ethr =  3.30E-09,  avg # of iterations = 10.9

   This run was terminated on:  13:39:39   3Jul2022

   JOB DONE.