     Program PWSCF v.6.1 (svn rev. 13369) starts on  3Jul2022 at 12:25:51

[...]

     Program PWSCF v.6.1 (svn rev. 13369) starts on  3Jul2022 at 12:25:51

     Current dimensions of program PWSCF are:

     Current dimensions of program PWSCF are:
     Max number of different atomic species (ntypx) = 10
     Max number of k-points (npk) =  40000
     Max angular momentum in pseudopotentials (lmaxx) =  3
     Max number of different atomic species (ntypx) = 10

     Current dimensions of program PWSCF are:
     Max number of different atomic species (ntypx) = 10

     Current dimensions of program PWSCF are:
     Max number of different atomic species (ntypx) = 10
     Max number of k-points (npk) =  40000
     Max angular momentum in pseudopotentials (lmaxx) =  3
     Max number of k-points (npk) =  40000

     Current dimensions of program PWSCF are:
     Max number of different atomic species (ntypx) = 10
     Max number of k-points (npk) =  40000
     Max angular momentum in pseudopotentials (lmaxx) =  3

     Current dimensions of program PWSCF are:
     Max number of k-points (npk) =  40000
     Max angular momentum in pseudopotentials (lmaxx) =  3

     Current dimensions of program PWSCF are:
     Max number of different atomic species (ntypx) = 10
     Max number of k-points (npk) =  40000
     Max angular momentum in pseudopotentials (lmaxx) =  3

     Current dimensions of program PWSCF are:
     Max number of different atomic species (ntypx) = 10

     Current dimensions of program PWSCF are:

     Current dimensions of program PWSCF are:
     Max number of different atomic species (ntypx) = 10
     Max number of k-points (npk) =  40000
     Max angular momentum in pseudopotentials (lmaxx) =  3
     Max angular momentum in pseudopotentials (lmaxx) =  3
     Max number of different atomic species (ntypx) = 10
     Current dimensions of program PWSCF are:
     Max number of different atomic species (ntypx) = 10
     Max number of k-points (npk) =  40000
     Max angular momentum in pseudopotentials (lmaxx) =  3
     Current dimensions of program PWSCF are:
     Max number of different atomic species (ntypx) = 10
     Max number of k-points (npk) =  40000
     Max angular momentum in pseudopotentials (lmaxx) =  3

     Current dimensions of program PWSCF are:
     Max number of different atomic species (ntypx) = 10
     Max number of k-points (npk) =  40000
     Max angular momentum in pseudopotentials (lmaxx) =  3
     Current dimensions of program PWSCF are:
     Max number of different atomic species (ntypx) = 10
     Max number of k-points (npk) =  40000
     Max angular momentum in pseudopotentials (lmaxx) =  3
     Current dimensions of program PWSCF are:
     Max number of different atomic species (ntypx) = 10
     Max number of k-points (npk) =  40000
     Max angular momentum in pseudopotentials (lmaxx) =  3
     Max number of k-points (npk) =  40000
     Max angular momentum in pseudopotentials (lmaxx) =  3

     Current dimensions of program PWSCF are:
     Max number of different atomic species (ntypx) = 10
     Max number of k-points (npk) =  40000
     Max angular momentum in pseudopotentials (lmaxx) =  3
     Max number of different atomic species (ntypx) = 10
     Max number of k-points (npk) =  40000
     Max angular momentum in pseudopotentials (lmaxx) =  3
     Max number of k-points (npk) =  40000
     Max angular momentum in pseudopotentials (lmaxx) =  3
               file Gd.GGA-PBE-paw-v1.0.UPF: wavefunction(s)  Xn Xn Xn Xn Xn Xn renormalized
               file Gd.GGA-PBE-paw-v1.0.UPF: wavefunction(s)  Xn Xn Xn Xn Xn Xn renormalized

     Subspace diagonalization in iterative solution of the eigenvalue problem:
     a serial algorithm will be used

[...]

               file Gd.GGA-PBE-paw-v1.0.UPF: wavefunction(s)  Xn Xn Xn Xn Xn Xn renormalized
     Found symmetry operation: I + (  0.0000 -0.5000 -0.5000)
     This is a supercell, fractional translations are disabled
     Found symmetry operation: I + (  0.0000 -0.5000 -0.5000)
     This is a supercell, fractional translations are disabled

     bravais-lattice index     =            0
     lattice parameter (alat)  =       9.6754  a.u.
     unit-cell volume          =     905.7461 (a.u.)^3
     number of atoms/cell      =           12
     number of atomic types    =            2
     number of electrons       =        80.00
     number of Kohn-Sham states=           48
     kinetic-energy cutoff     =      50.0000  Ry
     charge density cutoff     =     200.0000  Ry
     convergence threshold     =      1.0E-06
     mixing beta               =       0.7000
     number of iterations used =            8  plain     mixing
     Exchange-correlation      = PBE ( 1  4  3  4 0 0)
     nstep                     =          150

     celldm(1)=   9.675398  celldm(2)=   0.000000  celldm(3)=   0.000000
     celldm(4)=   0.000000  celldm(5)=   0.000000  celldm(6)=   0.000000

     crystal axes: (cart. coord. in units of alat)
               a(1) = (   1.000000   0.000000   0.000000 )
               a(2) = (   0.000000   1.000000   0.000000 )
               a(3) = (   0.000000   0.000000   1.000000 )

     reciprocal axes: (cart. coord. in units 2 pi/alat)
               b(1) = (  1.000000  0.000000  0.000000 )
               b(2) = (  0.000000  1.000000  0.000000 )
               b(3) = (  0.000000  0.000000  1.000000 )

     PseudoPot. # 1 for Gd read from file:
     /home/shaharpit/AcHProject/meam_fit/dft/qe_potentials/Gd.GGA-PBE-paw-v1.0.UPF
     MD5 check sum: 3e8e0d208da550914ae52eaf991d13de
     Pseudo is Projector augmented-wave + core cor, Zval = 18.0
     Generated using ATOMPAW code
     Shape of augmentation charge: BESSEL
     Using radial grid of 1110 points,  8 beta functions with:
                l(1) =   0
                l(2) =   0
                l(3) =   1
                l(4) =   1
                l(5) =   2
                l(6) =   2
                l(7) =   3
                l(8) =   3
     Q(r) pseudized with 0 coefficients

     PseudoPot. # 2 for  H read from file:
     /home/shaharpit/AcHProject/meam_fit/dft/qe_potentials/H.pbe-rrkjus_psl.1.0.0.UPF
     MD5 check sum: f52b6d4d1c606e5624b1dc7b2218f220
     Pseudo is Ultrasoft, Zval =  1.0
     Generated using "atomic" code by A. Dal Corso  v.5.1
     Using radial grid of  929 points,  2 beta functions with:
                l(1) =   0
                l(2) =   0
     Q(r) pseudized with 0 coefficients

     atomic species   valence    mass     pseudopotential
        Gd            18.00   157.25000     Gd( 1.00)
        H              1.00     1.00794      H( 1.00)

     48 Sym. Ops., with inversion, found

   Cartesian axes

     site n.     atom                  positions (alat units)
         1           Gd  tau(   1) = (   0.0000000   0.0000000   0.0000000  )
         2           Gd  tau(   2) = (   0.0000000   0.5000000   0.5000000  )
         3           Gd  tau(   3) = (   0.5000000   0.0000000   0.5000000  )
         4           Gd  tau(   4) = (   0.5000000   0.5000000   0.0000000  )
         5           H   tau(   5) = (   0.2500000   0.2500000   0.2500000  )
         6           H   tau(   6) = (   0.2500000   0.7500000   0.7500000  )
         7           H   tau(   7) = (   0.7500000   0.2500000   0.7500000  )
         8           H   tau(   8) = (   0.7500000   0.7500000   0.2500000  )
         9           H   tau(   9) = (   0.2500000   0.7500000   0.2500000  )
        10           H   tau(  10) = (   0.2500000   0.2500000   0.7500000  )
        11           H   tau(  11) = (   0.7500000   0.7500000   0.7500000  )
        12           H   tau(  12) = (   0.7500000   0.2500000   0.2500000  )

     number of k points=    10  gaussian smearing, width (Ry)=  0.0100
                       cart. coord. in units 2pi/alat
        k(    1) = (   0.0000000   0.0000000   0.0000000), wk =   0.0312500
        k(    2) = (   0.0000000   0.0000000   0.2500000), wk =   0.1875000
        k(    3) = (   0.0000000   0.0000000  -0.5000000), wk =   0.0937500
        k(    4) = (   0.0000000   0.2500000   0.2500000), wk =   0.3750000
        k(    5) = (   0.0000000   0.2500000  -0.5000000), wk =   0.3750000
        k(    6) = (   0.0000000  -0.5000000  -0.5000000), wk =   0.0937500
        k(    7) = (   0.2500000   0.2500000   0.2500000), wk =   0.2500000
        k(    8) = (   0.2500000   0.2500000  -0.5000000), wk =   0.3750000
        k(    9) = (   0.2500000  -0.5000000  -0.5000000), wk =   0.1875000
        k(   10) = (  -0.5000000  -0.5000000  -0.5000000), wk =   0.0312500

[...]

     Found symmetry operation: I + (  0.0000 -0.5000 -0.5000)
     This is a supercell, fractional translations are disabled

[...]

               file Gd.GGA-PBE-paw-v1.0.UPF: wavefunction(s)  Xn Xn Xn Xn Xn Xn renormalized
     Found symmetry operation: I + (  0.0000 -0.5000 -0.5000)
     This is a supercell, fractional translations are disabled

[...]

               file Gd.GGA-PBE-paw-v1.0.UPF: wavefunction(s)  Xn Xn Xn Xn Xn Xn renormalized
     Found symmetry operation: I + (  0.0000 -0.5000 -0.5000)
     This is a supercell, fractional translations are disabled

[...]

     PseudoPot. # 1 for Gd read from file:
     /home/shaharpit/AcHProject/meam_fit/dft/qe_potentials/Gd.GGA-PBE-paw-v1.0.UPF
     MD5 check sum: 3e8e0d208da550914ae52eaf991d13de

     Pseudo is Projector augmented-wave + core cor, Zval = 18.0
     Generated using ATOMPAW code
     Shape of augmentation charge: BESSEL
     Using radial grid of 1110 points,  8 beta functions with:
                l(1) =   0
                l(2) =   0
                l(3) =   1
                l(4) =   1
                l(5) =   2
                l(6) =   2
                l(7) =   3
                l(8) =   3
     Q(r) pseudized with 0 coefficients

[...]

     atomic species   valence    mass     pseudopotential

     Subspace diagonalization in iterative solution of the eigenvalue problem:
        Gd            18.00   157.25000     Gd( 1.00)
        H              1.00     1.00794      H( 1.00)

[...]

     a serial algorithm will be used

[...]

     Found symmetry operation: I + (  0.0000 -0.5000 -0.5000)
     This is a supercell, fractional translations are disabled
     Found symmetry operation: I + (  0.0000 -0.5000 -0.5000)
     This is a supercell, fractional translations are disabled

     Found symmetry operation: I + (  0.0000 -0.5000 -0.5000)

     This is a supercell, fractional translations are disabled
     Subspace diagonalization in iterative solution of the eigenvalue problem:
     a serial algorithm will be used

[...]

     Found symmetry operation: I + (  0.0000 -0.5000 -0.5000)
     This is a supercell, fractional translations are disabled

[...]

     Subspace diagonalization in iterative solution of the eigenvalue problem:
     a serial algorithm will be used

[...]

     Subspace diagonalization in iterative solution of the eigenvalue problem:
               b(2) = (  0.000000  1.000000  0.000000 )
               b(3) = (  0.000000  0.000000  1.000000 )

     PseudoPot. # 1 for Gd read from file:
     a serial algorithm will be used

[...]
                l(3) =   1
     reciprocal axes: (cart. coord. in units 2 pi/alat)
               b(1) = (  1.000000  0.000000  0.000000 )
               b(2) = (  0.000000  1.000000  0.000000 )
               b(3) = (  0.000000  0.000000  1.000000 )

                l(4) =   1
                l(5) =   2
                l(6) =   2
                l(7) =   3

     PseudoPot. # 1 for Gd read from file:
     /home/shaharpit/AcHProject/meam_fit/dft/qe_potentials/Gd.GGA-PBE-paw-v1.0.UPF
     MD5 check sum: 3e8e0d208da550914ae52eaf991d13de
     Pseudo is Projector augmented-wave + core cor, Zval = 18.0
     Generated using ATOMPAW code
     Shape of augmentation charge: BESSEL
     Using radial grid of 1110 points,  8 beta functions with:
                l(8) =   3
     Q(r) pseudized with 0 coefficients

     PseudoPot. # 2 for  H read from file:
     /home/shaharpit/AcHProject/meam_fit/dft/qe_potentials/H.pbe-rrkjus_psl.1.0.0.UPF
     MD5 check sum: f52b6d4d1c606e5624b1dc7b2218f220
     Pseudo is Ultrasoft, Zval =  1.0
     Generated using "atomic" code by A. Dal Corso  v.5.1
                l(1) =   0
                l(2) =   0
                l(3) =   1
                l(4) =   1
                l(5) =   2
     Using radial grid of  929 points,  2 beta functions with:
                l(1) =   0
                l(2) =   0
     Q(r) pseudized with 0 coefficients

                l(6) =   2
                l(7) =   3
                l(8) =   3
     Q(r) pseudized with 0 coefficients

     PseudoPot. # 2 for  H read from file:
     /home/shaharpit/AcHProject/meam_fit/dft/qe_potentials/H.pbe-rrkjus_psl.1.0.0.UPF

     atomic species   valence    mass     pseudopotential
        Gd            18.00   157.25000     Gd( 1.00)
        H              1.00     1.00794      H( 1.00)
     MD5 check sum: f52b6d4d1c606e5624b1dc7b2218f220
     Pseudo is Ultrasoft, Zval =  1.0
     Generated using "atomic" code by A. Dal Corso  v.5.1
     Using radial grid of  929 points,  2 beta functions with:
                l(1) =   0
                l(2) =   0

[...]

     site n.     atom                  positions (alat units)
     Q(r) pseudized with 0 coefficients

     atomic species   valence    mass     pseudopotential
        Gd            18.00   157.25000     Gd( 1.00)
        H              1.00     1.00794      H( 1.00)
         1           Gd  tau(   1) = (   0.0000000   0.0000000   0.0000000  )
         2           Gd  tau(   2) = (   0.0000000   0.5000000   0.5000000  )
         3           Gd  tau(   3) = (   0.5000000   0.0000000   0.5000000  )

     48 Sym. Ops., with inversion, found

   Cartesian axes

     site n.     atom                  positions (alat units)
         4           Gd  tau(   4) = (   0.5000000   0.5000000   0.0000000  )
         5           H   tau(   5) = (   0.2500000   0.2500000   0.2500000  )
         6           H   tau(   6) = (   0.2500000   0.7500000   0.7500000  )
         7           H   tau(   7) = (   0.7500000   0.2500000   0.7500000  )
         8           H   tau(   8) = (   0.7500000   0.7500000   0.2500000  )
         9           H   tau(   9) = (   0.2500000   0.7500000   0.2500000  )
        10           H   tau(  10) = (   0.2500000   0.2500000   0.7500000  )
        11           H   tau(  11) = (   0.7500000   0.7500000   0.7500000  )
         1           Gd  tau(   1) = (   0.0000000   0.0000000   0.0000000  )
         2           Gd  tau(   2) = (   0.0000000   0.5000000   0.5000000  )
         3           Gd  tau(   3) = (   0.5000000   0.0000000   0.5000000  )
        12           H   tau(  12) = (   0.7500000   0.2500000   0.2500000  )

     number of k points=    10  gaussian smearing, width (Ry)=  0.0100
                       cart. coord. in units 2pi/alat
         4           Gd  tau(   4) = (   0.5000000   0.5000000   0.0000000  )
         5           H   tau(   5) = (   0.2500000   0.2500000   0.2500000  )
         6           H   tau(   6) = (   0.2500000   0.7500000   0.7500000  )
         7           H   tau(   7) = (   0.7500000   0.2500000   0.7500000  )
         8           H   tau(   8) = (   0.7500000   0.7500000   0.2500000  )
         9           H   tau(   9) = (   0.2500000   0.7500000   0.2500000  )
        k(    1) = (   0.0000000   0.0000000   0.0000000), wk =   0.0312500
        k(    2) = (   0.0000000   0.0000000   0.2500000), wk =   0.1875000
        k(    3) = (   0.0000000   0.0000000  -0.5000000), wk =   0.0937500
        k(    4) = (   0.0000000   0.2500000   0.2500000), wk =   0.3750000
        k(    5) = (   0.0000000   0.2500000  -0.5000000), wk =   0.3750000
        k(    6) = (   0.0000000  -0.5000000  -0.5000000), wk =   0.0937500
        10           H   tau(  10) = (   0.2500000   0.2500000   0.7500000  )
        11           H   tau(  11) = (   0.7500000   0.7500000   0.7500000  )
        12           H   tau(  12) = (   0.7500000   0.2500000   0.2500000  )

     number of k points=    10  gaussian smearing, width (Ry)=  0.0100
                       cart. coord. in units 2pi/alat
        k(    7) = (   0.2500000   0.2500000   0.2500000), wk =   0.2500000
        k(    8) = (   0.2500000   0.2500000  -0.5000000), wk =   0.3750000
        k(    9) = (   0.2500000  -0.5000000  -0.5000000), wk =   0.1875000
        k(   10) = (  -0.5000000  -0.5000000  -0.5000000), wk =   0.0312500

     Initial potential from superposition of free atoms

[...]

     starting charge   79.97927, renormalised to   80.00000

[...]

     starting charge   79.97927, renormalised to   80.00000
     starting charge   79.97927, renormalised to   80.00000

     Initial potential from superposition of free atoms

     starting charge   79.97927, renormalised to   80.00000
     Starting wfc are  136 randomized atomic wfcs
     Starting wfc are  136 randomized atomic wfcs
     Starting wfc are  136 randomized atomic wfcs
     Starting wfc are  136 randomized atomic wfcs
     Starting wfc are  136 randomized atomic wfcs
     Starting wfc are  136 randomized atomic wfcs
     Starting wfc are  136 randomized atomic wfcs
     Starting wfc are  136 randomized atomic wfcs
     Starting wfc are  136 randomized atomic wfcs
     Starting wfc are  136 randomized atomic wfcs
     Starting wfc are  136 randomized atomic wfcs
     Starting wfc are  136 randomized atomic wfcs
     Starting wfc are  136 randomized atomic wfcs
     Starting wfc are  136 randomized atomic wfcs
     Starting wfc are  136 randomized atomic wfcs
     Starting wfc are  136 randomized atomic wfcs
     Checking if some PAW data can be deallocated...

     Self-consistent Calculation

     iteration #  1     ecut=    50.00 Ry     beta=0.70
     Davidson diagonalization with overlap
     Checking if some PAW data can be deallocated...

[...]

     iteration #  1     ecut=    50.00 Ry     beta=0.70
     Davidson diagonalization with overlap

[...]

     iteration #  1     ecut=    50.00 Ry     beta=0.70
     Davidson diagonalization with overlap
     Checking if some PAW data can be deallocated...

     Self-consistent Calculation

     iteration #  1     ecut=    50.00 Ry     beta=0.70
     Davidson diagonalization with overlap
     ethr =  1.00E-02,  avg # of iterations =  1.0
     ethr =  1.00E-02,  avg # of iterations =  1.0
     ethr =  1.00E-02,  avg # of iterations =  1.0
     ethr =  1.00E-02,  avg # of iterations =  1.0
     ethr =  1.00E-02,  avg # of iterations =  1.0
     ethr =  1.00E-02,  avg # of iterations =  1.0
     ethr =  1.00E-02,  avg # of iterations =  1.0
     ethr =  1.00E-02,  avg # of iterations =  1.0
     ethr =  1.00E-02,  avg # of iterations =  1.0
     ethr =  1.00E-02,  avg # of iterations =  1.0
     ethr =  1.00E-02,  avg # of iterations =  1.0
     ethr =  1.00E-02,  avg # of iterations =  1.0
     ethr =  1.00E-02,  avg # of iterations =  1.0
     ethr =  1.00E-02,  avg # of iterations =  1.0
     ethr =  1.00E-02,  avg # of iterations =  1.0
     ethr =  1.00E-02,  avg # of iterations =  1.0

     total energy              =   -2713.60762544 Ry
     Harris-Foulkes estimate   =   -2743.95036724 Ry
     estimated scf accuracy    <      25.94702642 Ry

[...]

     iteration # 13     ecut=    50.00 Ry     beta=0.70
     Davidson diagonalization with overlap
     iteration # 13     ecut=    50.00 Ry     beta=0.70
     Davidson diagonalization with overlap

[...]

     ethr =  2.39E-03,  avg # of iterations =  1.4

[...]

     iteration # 46     ecut=    50.00 Ry     beta=0.70

     total energy              =   -2743.78802795 Ry
     Harris-Foulkes estimate   =   -2743.80446486 Ry
     estimated scf accuracy    <      23.32689257 Ry
     Davidson diagonalization with overlap

[...]

     ethr =  4.44E-04,  avg # of iterations =  1.0

[...]

     total energy              =   -2743.70342618 Ry
     Harris-Foulkes estimate   =   -2743.70399480 Ry
     estimated scf accuracy    <       0.15942355 Ry
     ethr =  2.06E-06,  avg # of iterations =  1.0

[...]

     iteration #109     ecut=    50.00 Ry     beta=0.70
     ethr =  2.06E-06,  avg # of iterations =  3.7
     Davidson diagonalization with overlap
     ethr =  2.06E-06,  avg # of iterations =  6.0

[...]

     End of self-consistent calculation

          k = 0.0000 0.0000 0.0000 (  5449 PWs)   bands (ev):

   -30.0061 -29.8993 -29.8992 -29.8992  -8.5194  -8.5194  -8.5194  -7.8761
    -7.8761  -7.8761  -7.8760  -7.8760  -7.8760  -7.5705  -7.5705  -7.5705
     4.6372   7.3359   7.3359   7.3359   9.4404   9.4404   9.4404  10.0536
    10.6968  10.6968  10.6968  11.8180  11.8180  11.8180  11.8187  11.8187
    11.8187  11.8191  11.8191  11.8191  11.9621  11.9621  11.9621  12.0020
    12.0020  12.0020  12.1015  12.1015  12.1015  12.1019  12.1019  12.1019

[...]

          k =-0.5000-0.5000-0.5000 (  5400 PWs)   bands (ev):

[...]

     the Fermi energy is    12.0002 ev

!    total energy              =   -2743.70379732 Ry
     Harris-Foulkes estimate   =   -2743.70379839 Ry
     estimated scf accuracy    <       0.00000071 Ry

     The total energy is the sum of the following terms:

     one-electron contribution =    -392.75682873 Ry
     hartree contribution      =     252.29759619 Ry
     xc contribution           =     -96.49325993 Ry
     ewald contribution        =    -642.69559717 Ry
     one-center paw contrib.   =   -1863.99993758 Ry
     smearing contrib. (-TS)   =      -0.05577009 Ry

     convergence has been achieved in 120 iterations
     ethr =  6.72E-09,  avg # of iterations =  3.8
     ethr =  6.72E-09,  avg # of iterations =  1.9

     Forces acting on atoms (cartesian axes, Ry/au):

     atom    1 type  1   force =     0.00000000    0.00000000    0.00000000
     atom    2 type  1   force =     0.00000000    0.00000000    0.00000000
     atom    3 type  1   force =     0.00000000    0.00000000    0.00000000
     atom    4 type  1   force =     0.00000000    0.00000000    0.00000000
     atom    5 type  2   force =    -0.00001202   -0.00001202   -0.00001202
     atom    6 type  2   force =    -0.00001202    0.00001202    0.00001202
     atom    7 type  2   force =     0.00001202   -0.00001202    0.00001202
     atom    8 type  2   force =     0.00001202    0.00001202   -0.00001202
     atom    9 type  2   force =    -0.00001202    0.00001202   -0.00001202
     atom   10 type  2   force =    -0.00001202   -0.00001202    0.00001202
     atom   11 type  2   force =     0.00001202    0.00001202    0.00001202
     atom   12 type  2   force =     0.00001202   -0.00001202   -0.00001202

     Total force =     0.000059     Total SCF correction =     0.000032
     SCF correction compared to forces is large: reduce conv_thr to get better values

     BFGS Geometry Optimization

     bfgs converged in   1 scf cycles and   0 bfgs steps
     (criteria: energy <  1.0E-04 Ry, force <  1.0E-03 Ry/Bohr)

     End of BFGS Geometry Optimization

     Final energy   =   -2743.7037973226 Ry
Begin final coordinates

ATOMIC_POSITIONS (crystal)
Gd       0.000000000   0.000000000   0.000000000
Gd       0.000000000   0.500000000   0.500000000
Gd       0.500000000   0.000000000   0.500000000
Gd       0.500000000   0.500000000   0.000000000
H        0.250000000   0.250000000   0.250000000
H        0.250000000   0.750000000   0.750000000
H        0.750000000   0.250000000   0.750000000
H        0.750000000   0.750000000   0.250000000
H        0.250000000   0.750000000   0.250000000
H        0.250000000   0.250000000   0.750000000
H        0.750000000   0.750000000   0.750000000
H        0.750000000   0.250000000   0.250000000
End final coordinates

     Writing output data file 2246.save

[...]

     Forces acting on atoms (cartesian axes, Ry/au):

     atom    1 type  1   force =     0.00000000    0.00000000    0.00000000
     atom    2 type  1   force =     0.00000000    0.00000000    0.00000000
     atom    3 type  1   force =     0.00000000    0.00000000    0.00000000
     atom    4 type  1   force =     0.00000000    0.00000000    0.00000000
     atom    5 type  2   force =    -0.00001202   -0.00001202   -0.00001202
     atom    6 type  2   force =    -0.00001202    0.00001202    0.00001202
     atom    7 type  2   force =     0.00001202   -0.00001202    0.00001202
     atom    8 type  2   force =     0.00001202    0.00001202   -0.00001202
     atom    9 type  2   force =    -0.00001202    0.00001202   -0.00001202
     atom   10 type  2   force =    -0.00001202   -0.00001202    0.00001202
     atom   11 type  2   force =     0.00001202    0.00001202    0.00001202
     atom   12 type  2   force =     0.00001202   -0.00001202   -0.00001202

     Total force =     0.000059     Total SCF correction =     0.000032
     SCF correction compared to forces is large: reduce conv_thr to get better values
     ethr =  6.72E-09,  avg # of iterations =  1.9
     ethr =  6.72E-09,  avg # of iterations =  1.9

[...]

     iteration #119     ecut=    50.00 Ry     beta=0.70
     Davidson diagonalization with overlap
     ethr =  6.72E-09,  avg # of iterations =  3.8
     ethr =  6.72E-09,  avg # of iterations =  1.9

[...]

     convergence has been achieved in 120 iterations

[...]

     convergence has been achieved in 120 iterations

     total energy              =   -2743.70379822 Ry
     Harris-Foulkes estimate   =   -2743.70379851 Ry
     estimated scf accuracy    <       0.00001890 Ry

     iteration #120     ecut=    50.00 Ry     beta=0.70
     Davidson diagonalization with overlap

     End of self-consistent calculation

[...]

          k = 0.2500-0.5000-0.5000 (  5452 PWs)   bands (ev):

[...]

          k =-0.5000-0.5000-0.5000 (  5400 PWs)   bands (ev):

   -29.9257 -29.9256 -29.9256 -29.9256  -8.5361  -8.5361  -8.5361  -8.5361
    -7.6837  -7.6837  -7.6837  -7.6836  -7.6836  -7.6836  -7.6836  -7.6836
     6.5566   6.5566   6.5566   6.5566   9.4652   9.4652   9.4652   9.4652
    11.7980  11.7980  11.7980  11.7982  11.7982  11.7982  11.7986  11.7986
    11.9221  11.9221  11.9221  11.9225  12.0086  12.0086  12.0086  12.0091
    12.1197  12.1197  12.1197  12.1199  12.1199  12.1199  12.1203  12.3293

     the Fermi energy is    12.0002 ev

!    total energy              =   -2743.70379732 Ry
     Harris-Foulkes estimate   =   -2743.70379839 Ry
     estimated scf accuracy    <       0.00000071 Ry

     The total energy is the sum of the following terms:

     one-electron contribution =    -392.75682873 Ry
     hartree contribution      =     252.29759619 Ry
     xc contribution           =     -96.49325993 Ry
     ewald contribution        =    -642.69559717 Ry
     one-center paw contrib.   =   -1863.99993758 Ry
     smearing contrib. (-TS)   =      -0.05577009 Ry

     convergence has been achieved in 120 iterations
     ethr =  6.72E-09,  avg # of iterations =  1.0

     General routines

     Parallel routines

   This run was terminated on:  12:54: 1   3Jul2022

   JOB DONE.

     BFGS Geometry Optimization

     bfgs converged in   1 scf cycles and   0 bfgs steps
     (criteria: energy <  1.0E-04 Ry, force <  1.0E-03 Ry/Bohr)

     End of BFGS Geometry Optimization

     Final energy   =   -2743.7037973226 Ry
Begin final coordinates

ATOMIC_POSITIONS (crystal)
Gd       0.000000000   0.000000000   0.000000000
Gd       0.000000000   0.500000000   0.500000000
Gd       0.500000000   0.000000000   0.500000000
Gd       0.500000000   0.500000000   0.000000000
H        0.250000000   0.250000000   0.250000000
H        0.250000000   0.750000000   0.750000000
H        0.750000000   0.250000000   0.750000000
H        0.750000000   0.750000000   0.250000000
H        0.250000000   0.750000000   0.250000000
H        0.250000000   0.250000000   0.750000000
H        0.750000000   0.750000000   0.750000000
H        0.750000000   0.250000000   0.250000000
End final coordinates

     Writing output data file 2246.save