     Program PWSCF v.6.1 (svn rev. 13369) starts on 30Nov2022 at 11:36:57

     Current dimensions of program PWSCF are:
     Max number of different atomic species (ntypx) = 10
     Max number of k-points (npk) =  40000
     Max angular momentum in pseudopotentials (lmaxx) =  3
               file Gd.rel-pbe-spdn-kjpaw_psl.1.0.0.UPF: wavefunction(s)  5P 5P renormalized
               file H.pbe-kjpaw_psl.0.1.UPF: wavefunction(s)  1S renormalized

     Subspace diagonalization in iterative solution of the eigenvalue problem:
     a serial algorithm will be used

     Found symmetry operation: I + (  0.0000 -0.5000 -0.5000)
     This is a supercell, fractional translations are disabled

     bravais-lattice index     =            0
     lattice parameter (alat)  =      10.6492  a.u.
     unit-cell volume          =    1207.6685 (a.u.)^3
     number of atoms/cell      =           12
     number of atomic types    =            2
     number of electrons       =        52.00
     number of Kohn-Sham states=           62
     kinetic-energy cutoff     =      50.0000  Ry
     charge density cutoff     =     200.0000  Ry
     convergence threshold     =      1.0E-06
     mixing beta               =       0.7000
     number of iterations used =            8  plain     mixing
     Exchange-correlation      =  SLA  PW   PBX  PBC ( 1  4  3  4 0 0)
     Non magnetic calculation with spin-orbit

     celldm(1)=  10.649174  celldm(2)=   0.000000  celldm(3)=   0.000000
     celldm(4)=   0.000000  celldm(5)=   0.000000  celldm(6)=   0.000000

     crystal axes: (cart. coord. in units of alat)
               a(1) = (   1.000000   0.000000   0.000000 )
               a(2) = (   0.000000   1.000000   0.000000 )
               a(3) = (   0.000000   0.000000   1.000000 )

     reciprocal axes: (cart. coord. in units 2 pi/alat)
               b(1) = (  1.000000  0.000000  0.000000 )
               b(2) = (  0.000000  1.000000  0.000000 )
               b(3) = (  0.000000  0.000000  1.000000 )

     PseudoPot. # 1 for Gd read from file:
     /home/shaharpit/MeamGdH/dft/qe_potentials/Gd.rel-pbe-spdn-kjpaw_psl.1.0.0.UPF
     MD5 check sum: cf50ec46d1536b4a0251694df1946a53
     Pseudo is Projector augmented-wave + core cor, Zval = 11.0
     Generated using "atomic" code by A. Dal Corso  v.6.2.2
     Shape of augmentation charge: PSQ
     Using radial grid of 1263 points, 10 beta functions with:
                l(1) =   0
                l(2) =   0
                l(3) =   1
                l(4) =   1
                l(5) =   1
                l(6) =   1
                l(7) =   2
                l(8) =   2
                l(9) =   2
               l(10) =   2
     Q(r) pseudized with 0 coefficients

     PseudoPot. # 2 for  H read from file:
     /home/shaharpit/MeamGdH/dft/qe_potentials/H.pbe-kjpaw_psl.0.1.UPF
     MD5 check sum: fbb168fef676c0aaadbafd73f5b1efa8
     Pseudo is Projector augmented-wave, Zval =  1.0
     Generated using "atomic" code by A. Dal Corso  v.5.0.2 svn rev. 9415
     Shape of augmentation charge: PSQ
     Using radial grid of  929 points,  2 beta functions with:
                l(1) =   0
                l(2) =   0
     Q(r) pseudized with 0 coefficients

     atomic species   valence    mass     pseudopotential
        Gd            11.00   157.25000     Gd( 1.00)
        H              1.00     1.00794      H( 1.00)

     48 Sym. Ops., with inversion, found

   Cartesian axes

     site n.     atom                  positions (alat units)
         1           Gd  tau(   1) = (   0.0000000   0.0000000   0.0000000  )
         2           Gd  tau(   2) = (   0.0000000   0.5000000   0.5000000  )
         3           Gd  tau(   3) = (   0.5000000   0.0000000   0.5000000  )
         4           Gd  tau(   4) = (   0.5000000   0.5000000   0.0000000  )
         5           H   tau(   5) = (   0.2500000   0.2500000   0.2500000  )
         6           H   tau(   6) = (   0.2500000   0.7500000   0.7500000  )
         7           H   tau(   7) = (   0.7500000   0.2500000   0.7500000  )
         8           H   tau(   8) = (   0.7500000   0.7500000   0.2500000  )
         9           H   tau(   9) = (   0.2500000   0.7500000   0.2500000  )
        10           H   tau(  10) = (   0.2500000   0.2500000   0.7500000  )
        11           H   tau(  11) = (   0.7500000   0.7500000   0.7500000  )
        12           H   tau(  12) = (   0.7500000   0.2500000   0.2500000  )

     number of k points=    10  gaussian smearing, width (Ry)=  0.0100
                       cart. coord. in units 2pi/alat
        k(    1) = (   0.0000000   0.0000000   0.0000000), wk =   0.0156250
        k(    2) = (   0.0000000   0.0000000   0.2500000), wk =   0.0937500
        k(    3) = (   0.0000000   0.0000000  -0.5000000), wk =   0.0468750
        k(    4) = (   0.0000000   0.2500000   0.2500000), wk =   0.1875000
        k(    5) = (   0.0000000   0.2500000  -0.5000000), wk =   0.1875000
        k(    6) = (   0.0000000  -0.5000000  -0.5000000), wk =   0.0468750
        k(    7) = (   0.2500000   0.2500000   0.2500000), wk =   0.1250000
        k(    8) = (   0.2500000   0.2500000  -0.5000000), wk =   0.1875000
        k(    9) = (   0.2500000  -0.5000000  -0.5000000), wk =   0.0937500
        k(   10) = (  -0.5000000  -0.5000000  -0.5000000), wk =   0.0156250

     Check: negative/imaginary core charge=   -0.000003    0.000000

     Initial potential from superposition of free atoms

     starting charge   51.92374, renormalised to   52.00000
     Starting wfc are  120 randomized atomic wfcs
     Checking if some PAW data can be deallocated...

     Self-consistent Calculation

     iteration #  1     ecut=    50.00 Ry     beta=0.70
     Davidson diagonalization with overlap
     ethr =  1.00E-02,  avg # of iterations =  2.0

     total energy              =   -2248.21074908 Ry
     Harris-Foulkes estimate   =   -2248.54157550 Ry
     estimated scf accuracy    <       0.56478444 Ry

[...]

     total energy              =   -2248.32905481 Ry
     Harris-Foulkes estimate   =   -2248.32905639 Ry
     estimated scf accuracy    <       0.00000316 Ry

     iteration #  7     ecut=    50.00 Ry     beta=0.70
     Davidson diagonalization with overlap
     ethr =  6.08E-09,  avg # of iterations =  2.8

     End of self-consistent calculation

          k = 0.0000 0.0000 0.0000 (  7123 PWs)   bands (ev):

   -37.0862 -37.0862 -37.0623 -37.0623 -37.0623 -37.0623 -37.0622 -37.0622
   -17.8106 -17.8106 -17.8106 -17.8106 -17.8105 -17.8105 -17.7003 -17.7003
   -13.6050 -13.6050 -13.6049 -13.6049 -13.6049 -13.6049 -13.4454 -13.4454
   -13.4454 -13.4454 -13.4454 -13.4454 -13.3228 -13.3228 -13.3228 -13.3228
     0.4500   0.4500   3.1629   3.1629   3.1629   3.1629   3.1629   3.1629
     3.9988   3.9988   3.9989   3.9989   3.9989   3.9989   6.1113   6.1113
     6.1113   6.1113   6.1114   6.1114   6.2547   6.2547   8.6102   8.6102
     8.6102   8.6102   8.7695   8.7695  10.6876  10.6876

[...]

          k = 0.2500-0.5000-0.5000 (  7220 PWs)   bands (ev):

[...]

          k =-0.5000-0.5000-0.5000 (  7208 PWs)   bands (ev):

   -37.0683 -37.0683 -37.0683 -37.0683 -37.0683 -37.0683 -37.0681 -37.0681
   -17.7854 -17.7854 -17.7854 -17.7854 -17.7854 -17.7854 -17.7852 -17.7852
   -13.5828 -13.5828 -13.5828 -13.5828 -13.5828 -13.5828 -13.5828 -13.5828
   -13.3696 -13.3696 -13.3696 -13.3696 -13.3695 -13.3695 -13.3695 -13.3695
     2.3209   2.3209   2.3209   2.3209   2.3209   2.3209   2.3209   2.3209
     4.1477   4.1477   4.1477   4.1477   4.1477   4.1477   4.1477   4.1477
     8.6470   8.6470   8.6470   8.6470   8.6470   8.6470   8.6472   8.6474
     8.8336   8.8336   8.8336   8.8336   8.8336   8.8336

     the Fermi energy is     7.6855 ev

!    total energy              =   -2248.32905544 Ry
     Harris-Foulkes estimate   =   -2248.32905545 Ry
     estimated scf accuracy    <          7.4E-09 Ry

     total all-electron energy =    -90252.672432 Ry

     The total energy is the sum of the following terms:

     one-electron contribution =     -67.61017595 Ry
     hartree contribution      =      49.71764186 Ry
     xc contribution           =    -256.50202552 Ry
     ewald contribution        =    -225.89646929 Ry
     one-center paw contrib.   =   -1748.03617011 Ry
     smearing contrib. (-TS)   =      -0.00185644 Ry

     convergence has been achieved in   7 iterations

     Writing output data file 2353.save

     General routines

     Parallel routines

   This run was terminated on:  11:38: 1  30Nov2022

   JOB DONE.
Removing 2353 from /home/shaharpit/tmp