     Program PWSCF v.6.1 (svn rev. 13369) starts on  3Jul2022 at 12:25:51

[...]

     Program PWSCF v.6.1 (svn rev. 13369) starts on  3Jul2022 at 12:25:51

     Current dimensions of program PWSCF are:
     Max number of different atomic species (ntypx) = 10
     Max number of k-points (npk) =  40000
     Max angular momentum in pseudopotentials (lmaxx) =  3

[...]

     Current dimensions of program PWSCF are:

     Current dimensions of program PWSCF are:
     Max number of different atomic species (ntypx) = 10

[...]

     Current dimensions of program PWSCF are:
     Max number of different atomic species (ntypx) = 10
     Max number of k-points (npk) =  40000
     Max angular momentum in pseudopotentials (lmaxx) =  3
     Max number of different atomic species (ntypx) = 10
     Max number of k-points (npk) =  40000
     Max angular momentum in pseudopotentials (lmaxx) =  3

     Current dimensions of program PWSCF are:
     Max number of different atomic species (ntypx) = 10
     Max number of k-points (npk) =  40000
     Max angular momentum in pseudopotentials (lmaxx) =  3
     Max number of k-points (npk) =  40000
     Max angular momentum in pseudopotentials (lmaxx) =  3

     Current dimensions of program PWSCF are:
     Max number of different atomic species (ntypx) = 10
     Max number of k-points (npk) =  40000
     Max angular momentum in pseudopotentials (lmaxx) =  3

     Current dimensions of program PWSCF are:
     Max number of different atomic species (ntypx) = 10
     Max number of k-points (npk) =  40000
     Max angular momentum in pseudopotentials (lmaxx) =  3
               file Gd.GGA-PBE-paw-v1.0.UPF: wavefunction(s)  Xn Xn Xn Xn Xn Xn renormalized
               file Gd.GGA-PBE-paw-v1.0.UPF: wavefunction(s)  Xn Xn Xn Xn Xn Xn renormalized
               file Gd.GGA-PBE-paw-v1.0.UPF: wavefunction(s)  Xn Xn Xn Xn Xn Xn renormalized
               file Gd.GGA-PBE-paw-v1.0.UPF: wavefunction(s)  Xn Xn Xn Xn Xn Xn renormalized
               file Gd.GGA-PBE-paw-v1.0.UPF: wavefunction(s)  Xn Xn Xn Xn Xn Xn renormalized
               file Gd.GGA-PBE-paw-v1.0.UPF: wavefunction(s)  Xn Xn Xn Xn Xn Xn renormalized

     Subspace diagonalization in iterative solution of the eigenvalue problem:
     a serial algorithm will be used

[...]

               file Gd.GGA-PBE-paw-v1.0.UPF: wavefunction(s)  Xn Xn Xn Xn Xn Xn renormalized
               file Gd.GGA-PBE-paw-v1.0.UPF: wavefunction(s)  Xn Xn Xn Xn Xn Xn renormalized
               file Gd.GGA-PBE-paw-v1.0.UPF: wavefunction(s)  Xn Xn Xn Xn Xn Xn renormalized
               file Gd.GGA-PBE-paw-v1.0.UPF: wavefunction(s)  Xn Xn Xn Xn Xn Xn renormalized
               file Gd.GGA-PBE-paw-v1.0.UPF: wavefunction(s)  Xn Xn Xn Xn Xn Xn renormalized
               file Gd.GGA-PBE-paw-v1.0.UPF: wavefunction(s)  Xn Xn Xn Xn Xn Xn renormalized

[...]

               file Gd.GGA-PBE-paw-v1.0.UPF: wavefunction(s)  Xn Xn Xn Xn Xn Xn renormalized
               file Gd.GGA-PBE-paw-v1.0.UPF: wavefunction(s)  Xn Xn Xn Xn Xn Xn renormalized
               file Gd.GGA-PBE-paw-v1.0.UPF: wavefunction(s)  Xn Xn Xn Xn Xn Xn renormalized
               file Gd.GGA-PBE-paw-v1.0.UPF: wavefunction(s)  Xn Xn Xn Xn Xn Xn renormalized

[...]

     Subspace diagonalization in iterative solution of the eigenvalue problem:
     a serial algorithm will be used

     Found symmetry operation: I + (  0.0000 -0.5000 -0.5000)
     This is a supercell, fractional translations are disabled
     Found symmetry operation: I + (  0.0000 -0.5000 -0.5000)
     This is a supercell, fractional translations are disabled
     Found symmetry operation: I + (  0.0000 -0.5000 -0.5000)
     This is a supercell, fractional translations are disabled
     Found symmetry operation: I + (  0.0000 -0.5000 -0.5000)
     This is a supercell, fractional translations are disabled
     Found symmetry operation: I + (  0.0000 -0.5000 -0.5000)
     This is a supercell, fractional translations are disabled
     Found symmetry operation: I + (  0.0000 -0.5000 -0.5000)
     This is a supercell, fractional translations are disabled
     Found symmetry operation: I + (  0.0000 -0.5000 -0.5000)
     Found symmetry operation: I + (  0.0000 -0.5000 -0.5000)
     This is a supercell, fractional translations are disabled
     Found symmetry operation: I + (  0.0000 -0.5000 -0.5000)
     This is a supercell, fractional translations are disabled
     Found symmetry operation: I + (  0.0000 -0.5000 -0.5000)
     Found symmetry operation: I + (  0.0000 -0.5000 -0.5000)
     This is a supercell, fractional translations are disabled
     Found symmetry operation: I + (  0.0000 -0.5000 -0.5000)
     Found symmetry operation: I + (  0.0000 -0.5000 -0.5000)
     This is a supercell, fractional translations are disabled
     Found symmetry operation: I + (  0.0000 -0.5000 -0.5000)
     This is a supercell, fractional translations are disabled
     Found symmetry operation: I + (  0.0000 -0.5000 -0.5000)
     This is a supercell, fractional translations are disabled
     This is a supercell, fractional translations are disabled
     This is a supercell, fractional translations are disabled
     Found symmetry operation: I + (  0.0000 -0.5000 -0.5000)
     This is a supercell, fractional translations are disabled
     This is a supercell, fractional translations are disabled

     bravais-lattice index     =            0
     lattice parameter (alat)  =      10.0212  a.u.
     unit-cell volume          =    1006.3788 (a.u.)^3
     number of atoms/cell      =           12
     number of atomic types    =            2
     number of electrons       =        80.00
     number of Kohn-Sham states=           48
     kinetic-energy cutoff     =      50.0000  Ry
     charge density cutoff     =     200.0000  Ry
     convergence threshold     =      1.0E-06
     mixing beta               =       0.7000
     number of iterations used =            8  plain     mixing
     Exchange-correlation      = PBE ( 1  4  3  4 0 0)
     nstep                     =          150

     celldm(1)=  10.021218  celldm(2)=   0.000000  celldm(3)=   0.000000
     celldm(4)=   0.000000  celldm(5)=   0.000000  celldm(6)=   0.000000

     crystal axes: (cart. coord. in units of alat)

[...]

     crystal axes: (cart. coord. in units of alat)
               a(1) = (   1.000000   0.000000   0.000000 )
               a(2) = (   0.000000   1.000000   0.000000 )
               a(3) = (   0.000000   0.000000   1.000000 )

     reciprocal axes: (cart. coord. in units 2 pi/alat)

[...]

     reciprocal axes: (cart. coord. in units 2 pi/alat)
               b(1) = (  1.000000  0.000000  0.000000 )
               b(2) = (  0.000000  1.000000  0.000000 )
               b(3) = (  0.000000  0.000000  1.000000 )

[...]

     crystal axes: (cart. coord. in units of alat)

[...]

     PseudoPot. # 1 for Gd read from file:
     /home/shaharpit/AcHProject/meam_fit/dft/qe_potentials/Gd.GGA-PBE-paw-v1.0.UPF

     bravais-lattice index     =            0
     lattice parameter (alat)  =      10.0212  a.u.
     unit-cell volume          =    1006.3788 (a.u.)^3
     number of atoms/cell      =           12
     number of atomic types    =            2
     number of electrons       =        80.00
     number of Kohn-Sham states=           48
     kinetic-energy cutoff     =      50.0000  Ry
     charge density cutoff     =     200.0000  Ry
     convergence threshold     =      1.0E-06
     mixing beta               =       0.7000
     number of iterations used =            8  plain     mixing
     Exchange-correlation      = PBE ( 1  4  3  4 0 0)

     bravais-lattice index     =            0
     lattice parameter (alat)  =      10.0212  a.u.
     unit-cell volume          =    1006.3788 (a.u.)^3
     number of atoms/cell      =           12
     number of atomic types    =            2
     number of electrons       =        80.00
     number of Kohn-Sham states=           48
     kinetic-energy cutoff     =      50.0000  Ry
     charge density cutoff     =     200.0000  Ry
     convergence threshold     =      1.0E-06
     mixing beta               =       0.7000
     number of iterations used =            8  plain     mixing
     Exchange-correlation      = PBE ( 1  4  3  4 0 0)
     nstep                     =          150

[...]

     PseudoPot. # 1 for Gd read from file:
     /home/shaharpit/AcHProject/meam_fit/dft/qe_potentials/Gd.GGA-PBE-paw-v1.0.UPF
     MD5 check sum: 3e8e0d208da550914ae52eaf991d13de
     Pseudo is Projector augmented-wave + core cor, Zval = 18.0
     Generated using ATOMPAW code
     Shape of augmentation charge: BESSEL
     Using radial grid of 1110 points,  8 beta functions with:
                l(1) =   0
               a(1) = (   1.000000   0.000000   0.000000 )
               a(2) = (   0.000000   1.000000   0.000000 )
               a(3) = (   0.000000   0.000000   1.000000 )

[...]

     PseudoPot. # 1 for Gd read from file:
     /home/shaharpit/AcHProject/meam_fit/dft/qe_potentials/Gd.GGA-PBE-paw-v1.0.UPF
     MD5 check sum: 3e8e0d208da550914ae52eaf991d13de
     Pseudo is Projector augmented-wave + core cor, Zval = 18.0
     Generated using ATOMPAW code
     Shape of augmentation charge: BESSEL
     Using radial grid of 1110 points,  8 beta functions with:
                l(1) =   0
                l(2) =   0
                l(3) =   1
                l(4) =   1
                l(5) =   2
                l(6) =   2
                l(7) =   3
                l(8) =   3
     Q(r) pseudized with 0 coefficients

     PseudoPot. # 2 for  H read from file:
     /home/shaharpit/AcHProject/meam_fit/dft/qe_potentials/H.pbe-rrkjus_psl.1.0.0.UPF
     MD5 check sum: f52b6d4d1c606e5624b1dc7b2218f220
     Pseudo is Ultrasoft, Zval =  1.0
     Generated using "atomic" code by A. Dal Corso  v.5.1
     Using radial grid of  929 points,  2 beta functions with:
                l(1) =   0
                l(2) =   0
     Q(r) pseudized with 0 coefficients

               b(1) = (  1.000000  0.000000  0.000000 )
               b(2) = (  0.000000  1.000000  0.000000 )
               b(3) = (  0.000000  0.000000  1.000000 )

     PseudoPot. # 1 for Gd read from file:
     /home/shaharpit/AcHProject/meam_fit/dft/qe_potentials/Gd.GGA-PBE-paw-v1.0.UPF
     MD5 check sum: 3e8e0d208da550914ae52eaf991d13de
     Pseudo is Projector augmented-wave + core cor, Zval = 18.0
     Generated using ATOMPAW code
     Shape of augmentation charge: BESSEL
     Using radial grid of 1110 points,  8 beta functions with:
                l(1) =   0
                l(2) =   0
                l(3) =   1
                l(4) =   1

[...]

     atomic species   valence    mass     pseudopotential
        Gd            18.00   157.25000     Gd( 1.00)
        H              1.00     1.00794      H( 1.00)

     48 Sym. Ops., with inversion, found

[...]

   Cartesian axes

     site n.     atom                  positions (alat units)
         1           Gd  tau(   1) = (   0.0000000   0.0000000   0.0000000  )
         2           Gd  tau(   2) = (   0.0000000   0.5000000   0.5000000  )
         3           Gd  tau(   3) = (   0.5000000   0.0000000   0.5000000  )
[...]
        k(    2) = (   0.0000000   0.0000000   0.2500000), wk =   0.1875000
        k(    3) = (   0.0000000   0.0000000  -0.5000000), wk =   0.0937500
        k(    4) = (   0.0000000   0.2500000   0.2500000), wk =   0.3750000
        k(    5) = (   0.0000000   0.2500000  -0.5000000), wk =   0.3750000
        k(    6) = (   0.0000000  -0.5000000  -0.5000000), wk =   0.0937500
        k(    7) = (   0.2500000   0.2500000   0.2500000), wk =   0.2500000
        k(    8) = (   0.2500000   0.2500000  -0.5000000), wk =   0.3750000
        k(    9) = (   0.2500000  -0.5000000  -0.5000000), wk =   0.1875000
        k(   10) = (  -0.5000000  -0.5000000  -0.5000000), wk =   0.0312500

     Initial potential from superposition of free atoms

[...]

     Initial potential from superposition of free atoms

     starting charge   79.97927, renormalised to   80.00000

[...]

     starting charge   79.97927, renormalised to   80.00000

     starting charge   79.97927, renormalised to   80.00000
     Starting wfc are  136 randomized atomic wfcs
     Starting wfc are  136 randomized atomic wfcs
     Starting wfc are  136 randomized atomic wfcs
     Starting wfc are  136 randomized atomic wfcs
     Starting wfc are  136 randomized atomic wfcs
     Starting wfc are  136 randomized atomic wfcs
     Starting wfc are  136 randomized atomic wfcs
     Starting wfc are  136 randomized atomic wfcs
     Starting wfc are  136 randomized atomic wfcs
     Starting wfc are  136 randomized atomic wfcs
     Starting wfc are  136 randomized atomic wfcs
     Starting wfc are  136 randomized atomic wfcs
     Starting wfc are  136 randomized atomic wfcs
     Starting wfc are  136 randomized atomic wfcs
     Starting wfc are  136 randomized atomic wfcs
     Starting wfc are  136 randomized atomic wfcs
     Checking if some PAW data can be deallocated...

     Self-consistent Calculation

     iteration #  1     ecut=    50.00 Ry     beta=0.70
     Davidson diagonalization with overlap
     Checking if some PAW data can be deallocated...

[...]

     iteration #  1     ecut=    50.00 Ry     beta=0.70

[...]

     iteration #  1     ecut=    50.00 Ry     beta=0.70
     Davidson diagonalization with overlap
     Davidson diagonalization with overlap

[...]

     iteration #  1     ecut=    50.00 Ry     beta=0.70
     Checking if some PAW data can be deallocated...
     Davidson diagonalization with overlap

[...]

     iteration #  1     ecut=    50.00 Ry     beta=0.70
     Checking if some PAW data can be deallocated...
     Davidson diagonalization with overlap

[...]

     iteration #  1     ecut=    50.00 Ry     beta=0.70
     Davidson diagonalization with overlap
     Checking if some PAW data can be deallocated...

[...]

     Checking if some PAW data can be deallocated...

[...]

     iteration #  1     ecut=    50.00 Ry     beta=0.70
     Davidson diagonalization with overlap
     iteration #  1     ecut=    50.00 Ry     beta=0.70
     Davidson diagonalization with overlap
     Checking if some PAW data can be deallocated...

     Self-consistent Calculation

     iteration #  1     ecut=    50.00 Ry     beta=0.70
     Davidson diagonalization with overlap
     ethr =  1.00E-02,  avg # of iterations =  1.0
     ethr =  1.00E-02,  avg # of iterations =  1.0
     ethr =  1.00E-02,  avg # of iterations =  1.0
     ethr =  1.00E-02,  avg # of iterations =  1.0
     ethr =  1.00E-02,  avg # of iterations =  1.0
     ethr =  1.00E-02,  avg # of iterations =  1.0
     ethr =  1.00E-02,  avg # of iterations =  1.0
     ethr =  1.00E-02,  avg # of iterations =  1.0
     ethr =  1.00E-02,  avg # of iterations =  1.0
     ethr =  1.00E-02,  avg # of iterations =  1.0
     ethr =  1.00E-02,  avg # of iterations =  1.0
     ethr =  1.00E-02,  avg # of iterations =  1.0
     ethr =  1.00E-02,  avg # of iterations =  1.0
     ethr =  1.00E-02,  avg # of iterations =  1.0
     ethr =  1.00E-02,  avg # of iterations =  1.0
     ethr =  1.00E-02,  avg # of iterations =  1.0

     total energy              =   -2711.61000062 Ry
     Harris-Foulkes estimate   =   -2744.06671794 Ry
     estimated scf accuracy    <      27.75385815 Ry

[...]

     iteration # 32     ecut=    50.00 Ry     beta=0.70
     ethr =  1.00E-02,  avg # of iterations =  1.0
     Davidson diagonalization with overlap

[...]

     ethr =  3.07E-03,  avg # of iterations =  2.4

[...]

     iteration # 59     ecut=    50.00 Ry     beta=0.70
     Davidson diagonalization with overlap
     iteration # 59     ecut=    50.00 Ry     beta=0.70
     Davidson diagonalization with overlap
     ethr =  1.45E-04,  avg # of iterations =  1.0

[...]

     iteration # 67     ecut=    50.00 Ry     beta=0.70

[...]

     iteration # 71     ecut=    50.00 Ry     beta=0.70
     Davidson diagonalization with overlap
     iteration # 70     ecut=    50.00 Ry     beta=0.70
     Davidson diagonalization with overlap
     ethr =  2.40E-05,  avg # of iterations =  1.0
     ethr =  2.40E-05,  avg # of iterations =  1.3

[...]

     iteration # 79     ecut=    50.00 Ry     beta=0.70
     Davidson diagonalization with overlap
     c_bands:  1 eigenvalues not converged
     c_bands:  1 eigenvalues not converged
     c_bands:  1 eigenvalues not converged
     ethr =  2.40E-05,  avg # of iterations =  2.7
     ethr =  2.40E-05,  avg # of iterations =  2.7

[...]

     iteration # 81     ecut=    50.00 Ry     beta=0.70
     Davidson diagonalization with overlap
     c_bands:  1 eigenvalues not converged
     c_bands:  1 eigenvalues not converged

[...]

     iteration # 81     ecut=    50.00 Ry     beta=0.70
     Davidson diagonalization with overlap
     c_bands:  1 eigenvalues not converged
     ethr =  2.40E-05,  avg # of iterations =  1.8
     c_bands:  1 eigenvalues not converged
     ethr =  2.40E-05,  avg # of iterations =  1.8

[...]

     iteration # 81     ecut=    50.00 Ry     beta=0.70
     Davidson diagonalization with overlap
     c_bands:  1 eigenvalues not converged
     c_bands:  1 eigenvalues not converged
     c_bands:  1 eigenvalues not converged
     c_bands:  1 eigenvalues not converged
     ethr =  2.36E-06,  avg # of iterations =  8.2
     ethr =  2.36E-06,  avg # of iterations =  8.2
     c_bands:  1 eigenvalues not converged
     ethr =  2.36E-06,  avg # of iterations =  8.2
     c_bands:  1 eigenvalues not converged

[...]

     iteration # 80     ecut=    50.00 Ry     beta=0.70
     Davidson diagonalization with overlap
     c_bands:  1 eigenvalues not converged
     ethr =  2.40E-05,  avg # of iterations =  2.7
     c_bands:  1 eigenvalues not converged

[...]

     iteration # 82     ecut=    50.00 Ry     beta=0.70
     Davidson diagonalization with overlap
     ethr =  2.36E-06,  avg # of iterations =  8.2
     c_bands:  1 eigenvalues not converged

[...]

     iteration # 82     ecut=    50.00 Ry     beta=0.70
     Davidson diagonalization with overlap
     ethr =  2.36E-06,  avg # of iterations =  8.2
     ethr =  2.36E-06,  avg # of iterations =  8.2
     c_bands:  1 eigenvalues not converged
     ethr =  2.36E-06,  avg # of iterations =  8.2

[...]

     iteration # 83     ecut=    50.00 Ry     beta=0.70
     c_bands:  1 eigenvalues not converged
     Davidson diagonalization with overlap
     c_bands:  1 eigenvalues not converged

[...]

     iteration # 83     ecut=    50.00 Ry     beta=0.70
     Davidson diagonalization with overlap
     ethr =  2.36E-06,  avg # of iterations =  8.2
     ethr =  1.38E-06,  avg # of iterations =  7.0
     c_bands:  1 eigenvalues not converged
     ethr =  1.38E-06,  avg # of iterations =  7.0
     c_bands:  1 eigenvalues not converged
     ethr =  1.38E-06,  avg # of iterations =  7.0
     ethr =  2.36E-06,  avg # of iterations =  8.2
     c_bands:  1 eigenvalues not converged

[...]

     iteration # 82     ecut=    50.00 Ry     beta=0.70
     Davidson diagonalization with overlap
     ethr =  1.38E-06,  avg # of iterations =  7.0
     ethr =  1.38E-06,  avg # of iterations =  7.0
     c_bands:  1 eigenvalues not converged
     ethr =  1.38E-06,  avg # of iterations =  7.0

[...]

     iteration # 84     ecut=    50.00 Ry     beta=0.70
     Davidson diagonalization with overlap
     c_bands:  1 eigenvalues not converged
     ethr =  1.38E-06,  avg # of iterations =  1.6
     ethr =  1.38E-06,  avg # of iterations =  1.6

[...]

     iteration # 85     ecut=    50.00 Ry     beta=0.70
     Davidson diagonalization with overlap
     ethr =  1.38E-06,  avg # of iterations =  1.6
     c_bands:  1 eigenvalues not converged

[...]

     iteration # 84     ecut=    50.00 Ry     beta=0.70
     Davidson diagonalization with overlap
     c_bands:  1 eigenvalues not converged

[...]

     ethr =  1.52E-07,  avg # of iterations =  3.7

[...]

     iteration #104     ecut=    50.00 Ry     beta=0.70
     Davidson diagonalization with overlap
     ethr =  3.32E-09,  avg # of iterations =  4.4

     End of self-consistent calculation

          k = 0.0000 0.0000 0.0000 (  6031 PWs)   bands (ev):

   -31.4805 -31.4136 -31.4136 -31.4134  -9.8397  -9.8397  -9.8397  -9.3829
    -9.3829  -9.3829  -9.3827  -9.3827  -9.3827  -9.1616  -9.1616  -9.1616
     3.5417   6.3085   6.3085   6.3085   7.8370   7.8370   7.8370   8.8420
     9.5544   9.5544   9.5544  10.4844  10.4844  10.4844  10.4849  10.4849
    10.4849  10.4875  10.4875  10.4875  10.6397  10.6397  10.6397  10.6407
    10.6407  10.6407  10.7550  10.7550  10.7550  10.7555  10.7555  10.7555

[...]

          k =-0.5000-0.5000-0.5000 (  6008 PWs)   bands (ev):

[...]

     the Fermi energy is    10.6616 ev

!    total energy              =   -2743.72757050 Ry
     Harris-Foulkes estimate   =   -2743.72757155 Ry
     estimated scf accuracy    <       0.00000078 Ry

     The total energy is the sum of the following terms:

     one-electron contribution =    -429.08795256 Ry
     hartree contribution      =     265.78273944 Ry
     xc contribution           =     -96.17446312 Ry
     ewald contribution        =    -620.51696352 Ry
     one-center paw contrib.   =   -1863.66986201 Ry
     smearing contrib. (-TS)   =      -0.06106874 Ry

     convergence has been achieved in 105 iterations
     ethr =  1.22E-08,  avg # of iterations =  1.9

[...]

     convergence has been achieved in 105 iterations
     ethr =  3.32E-09,  avg # of iterations =  4.4

[...]

     convergence has been achieved in 105 iterations

     total energy              =   -2743.72755708 Ry
     Harris-Foulkes estimate   =   -2743.72755714 Ry
     estimated scf accuracy    <       0.00000266 Ry

     iteration #105     ecut=    50.00 Ry     beta=0.70
     Davidson diagonalization with overlap

     Forces acting on atoms (cartesian axes, Ry/au):

     atom    1 type  1   force =     0.00000000   -0.00000000   -0.00000000
     atom    2 type  1   force =     0.00000000    0.00000000    0.00000000
     atom    3 type  1   force =     0.00000000   -0.00000000    0.00000000
     atom    4 type  1   force =     0.00000000    0.00000000    0.00000000
     atom    5 type  2   force =    -0.00001002   -0.00001002   -0.00001002
     atom    6 type  2   force =    -0.00001002    0.00001002    0.00001002
     atom    7 type  2   force =     0.00001002   -0.00001002    0.00001002
     atom    8 type  2   force =     0.00001002    0.00001002   -0.00001002
     atom    9 type  2   force =    -0.00001002    0.00001002   -0.00001002
     atom   10 type  2   force =    -0.00001002   -0.00001002    0.00001002
     atom   11 type  2   force =     0.00001002    0.00001002    0.00001002
     atom   12 type  2   force =     0.00001002   -0.00001002   -0.00001002

     Total force =     0.000049     Total SCF correction =     0.000255
     SCF correction compared to forces is large: reduce conv_thr to get better values

     BFGS Geometry Optimization

     bfgs converged in   1 scf cycles and   0 bfgs steps
     (criteria: energy <  1.0E-04 Ry, force <  1.0E-03 Ry/Bohr)

     End of BFGS Geometry Optimization

     Final energy   =   -2743.7275705007 Ry
Begin final coordinates

ATOMIC_POSITIONS (crystal)
Gd       0.000000000   0.000000000   0.000000000
Gd       0.000000000   0.500000000   0.500000000
Gd       0.500000000   0.000000000   0.500000000
Gd       0.500000000   0.500000000   0.000000000
H        0.250000000   0.250000000   0.250000000
H        0.250000000   0.750000000   0.750000000
H        0.750000000   0.250000000   0.750000000
H        0.750000000   0.750000000   0.250000000
H        0.250000000   0.750000000   0.250000000
H        0.250000000   0.250000000   0.750000000
H        0.750000000   0.750000000   0.750000000
H        0.750000000   0.250000000   0.250000000
End final coordinates

     Writing output data file 2247.save
     ethr =  3.32E-09,  avg # of iterations =  4.4

[...]

     Total force =     0.000049     Total SCF correction =     0.000255
     SCF correction compared to forces is large: reduce conv_thr to get better values

     Forces acting on atoms (cartesian axes, Ry/au):

     atom    1 type  1   force =     0.00000000   -0.00000000   -0.00000000
     atom    2 type  1   force =     0.00000000    0.00000000    0.00000000
     atom    3 type  1   force =     0.00000000   -0.00000000    0.00000000
     atom    4 type  1   force =     0.00000000    0.00000000    0.00000000
     atom    5 type  2   force =    -0.00001002   -0.00001002   -0.00001002
     atom    6 type  2   force =    -0.00001002    0.00001002    0.00001002
     atom    7 type  2   force =     0.00001002   -0.00001002    0.00001002
     atom    8 type  2   force =     0.00001002    0.00001002   -0.00001002
     atom    9 type  2   force =    -0.00001002    0.00001002   -0.00001002
     atom   10 type  2   force =    -0.00001002   -0.00001002    0.00001002
     atom   11 type  2   force =     0.00001002    0.00001002    0.00001002
     atom   12 type  2   force =     0.00001002   -0.00001002   -0.00001002

     Total force =     0.000049     Total SCF correction =     0.000255
     SCF correction compared to forces is large: reduce conv_thr to get better values
     ethr =  1.22E-08,  avg # of iterations =  2.8
     ethr =  3.32E-09,  avg # of iterations =  4.4
     ethr =  1.22E-08,  avg # of iterations =  2.8
     ethr =  3.32E-09,  avg # of iterations =  4.4
     ethr =  1.22E-08,  avg # of iterations =  2.8
     ethr =  3.32E-09,  avg # of iterations =  4.4

     End of self-consistent calculation

[...]

          k = 0.2500-0.5000-0.5000 (  6000 PWs)   bands (ev):

[...]

          k =-0.5000-0.5000-0.5000 (  6008 PWs)   bands (ev):

   -31.4301 -31.4301 -31.4301 -31.4299  -9.8512  -9.8512  -9.8512  -9.8512
    -9.2444  -9.2444  -9.2444  -9.2443  -9.2443  -9.2442  -9.2442  -9.2442
     5.4831   5.4831   5.4831   5.4831   7.9107   7.9107   7.9107   7.9107
    10.4706  10.4706  10.4706  10.4709  10.4709  10.4709  10.4713  10.4713
    10.5928  10.5928  10.5928  10.5933  10.6451  10.6451  10.6451  10.6456
    10.7691  10.7691  10.7691  10.7694  10.7694  10.7694  10.7697  10.7698

     the Fermi energy is    10.6616 ev

!    total energy              =   -2743.72757050 Ry
     Harris-Foulkes estimate   =   -2743.72757155 Ry
     estimated scf accuracy    <       0.00000078 Ry

     The total energy is the sum of the following terms:

     one-electron contribution =    -429.08795256 Ry
     hartree contribution      =     265.78273944 Ry
     xc contribution           =     -96.17446312 Ry
     ewald contribution        =    -620.51696352 Ry
     one-center paw contrib.   =   -1863.66986201 Ry
     smearing contrib. (-TS)   =      -0.06106874 Ry

     convergence has been achieved in 105 iterations

[...]

     Writing output data file 2247.save

     BFGS Geometry Optimization

     bfgs converged in   1 scf cycles and   0 bfgs steps
     (criteria: energy <  1.0E-04 Ry, force <  1.0E-03 Ry/Bohr)

     End of BFGS Geometry Optimization

     Final energy   =   -2743.7275705007 Ry
Begin final coordinates

ATOMIC_POSITIONS (crystal)
Gd       0.000000000   0.000000000   0.000000000
Gd       0.000000000   0.500000000   0.500000000
Gd       0.500000000   0.000000000   0.500000000
Gd       0.500000000   0.500000000   0.000000000
H        0.250000000   0.250000000   0.250000000
H        0.250000000   0.750000000   0.750000000
H        0.750000000   0.250000000   0.750000000
H        0.750000000   0.750000000   0.250000000
H        0.250000000   0.750000000   0.250000000
H        0.250000000   0.250000000   0.750000000
H        0.750000000   0.750000000   0.750000000
H        0.750000000   0.250000000   0.250000000
End final coordinates

     Writing output data file 2247.save

     General routines

     Parallel routines

   This run was terminated on:  12:57:18   3Jul2022

   JOB DONE.