     Program PWSCF v.6.1 (svn rev. 13369) starts on 30Nov2022 at 11:36:57

     Current dimensions of program PWSCF are:
     Max number of different atomic species (ntypx) = 10
     Max number of k-points (npk) =  40000
     Max angular momentum in pseudopotentials (lmaxx) =  3
               file Gd.rel-pbe-spdn-kjpaw_psl.1.0.0.UPF: wavefunction(s)  5P 5P renormalized
               file H.pbe-kjpaw_psl.0.1.UPF: wavefunction(s)  1S renormalized

     Subspace diagonalization in iterative solution of the eigenvalue problem:
     a serial algorithm will be used

     Found symmetry operation: I + (  0.0000 -0.5000 -0.5000)
     This is a supercell, fractional translations are disabled

     bravais-lattice index     =            0
     lattice parameter (alat)  =       9.3029  a.u.
     unit-cell volume          =     805.1182 (a.u.)^3
     number of atoms/cell      =           12
     number of atomic types    =            2
     number of electrons       =        52.00
     number of Kohn-Sham states=           62
     kinetic-energy cutoff     =      50.0000  Ry
     charge density cutoff     =     200.0000  Ry
     convergence threshold     =      1.0E-06
     mixing beta               =       0.7000
     number of iterations used =            8  plain     mixing
     Exchange-correlation      =  SLA  PW   PBX  PBC ( 1  4  3  4 0 0)
     Non magnetic calculation with spin-orbit

     celldm(1)=   9.302933  celldm(2)=   0.000000  celldm(3)=   0.000000
     celldm(4)=   0.000000  celldm(5)=   0.000000  celldm(6)=   0.000000

     crystal axes: (cart. coord. in units of alat)
               a(1) = (   1.000000   0.000000   0.000000 )
               a(2) = (   0.000000   1.000000   0.000000 )
               a(3) = (   0.000000   0.000000   1.000000 )

     reciprocal axes: (cart. coord. in units 2 pi/alat)
               b(1) = (  1.000000  0.000000  0.000000 )
               b(2) = (  0.000000  1.000000  0.000000 )
               b(3) = (  0.000000  0.000000  1.000000 )

     PseudoPot. # 1 for Gd read from file:
     /home/shaharpit/MeamGdH/dft/qe_potentials/Gd.rel-pbe-spdn-kjpaw_psl.1.0.0.UPF
     MD5 check sum: cf50ec46d1536b4a0251694df1946a53
     Pseudo is Projector augmented-wave + core cor, Zval = 11.0
     Generated using "atomic" code by A. Dal Corso  v.6.2.2
     Shape of augmentation charge: PSQ
     Using radial grid of 1263 points, 10 beta functions with:
                l(1) =   0
                l(2) =   0
                l(3) =   1
                l(4) =   1
                l(5) =   1
                l(6) =   1
                l(7) =   2
                l(8) =   2
                l(9) =   2
               l(10) =   2
     Q(r) pseudized with 0 coefficients

     PseudoPot. # 2 for  H read from file:
     /home/shaharpit/MeamGdH/dft/qe_potentials/H.pbe-kjpaw_psl.0.1.UPF
     MD5 check sum: fbb168fef676c0aaadbafd73f5b1efa8
     Pseudo is Projector augmented-wave, Zval =  1.0
     Generated using "atomic" code by A. Dal Corso  v.5.0.2 svn rev. 9415
     Shape of augmentation charge: PSQ
     Using radial grid of  929 points,  2 beta functions with:
                l(1) =   0
                l(2) =   0
     Q(r) pseudized with 0 coefficients

     atomic species   valence    mass     pseudopotential
        Gd            11.00   157.25000     Gd( 1.00)
        H              1.00     1.00794      H( 1.00)

     48 Sym. Ops., with inversion, found

   Cartesian axes

     site n.     atom                  positions (alat units)
         1           Gd  tau(   1) = (   0.0000000   0.0000000   0.0000000  )
         2           Gd  tau(   2) = (   0.0000000   0.5000000   0.5000000  )
         3           Gd  tau(   3) = (   0.5000000   0.0000000   0.5000000  )
         4           Gd  tau(   4) = (   0.5000000   0.5000000   0.0000000  )
         5           H   tau(   5) = (   0.2500000   0.2500000   0.2500000  )
         6           H   tau(   6) = (   0.2500000   0.7500000   0.7500000  )
         7           H   tau(   7) = (   0.7500000   0.2500000   0.7500000  )
         8           H   tau(   8) = (   0.7500000   0.7500000   0.2500000  )
         9           H   tau(   9) = (   0.2500000   0.7500000   0.2500000  )
        10           H   tau(  10) = (   0.2500000   0.2500000   0.7500000  )
        11           H   tau(  11) = (   0.7500000   0.7500000   0.7500000  )
        12           H   tau(  12) = (   0.7500000   0.2500000   0.2500000  )

     number of k points=    10  gaussian smearing, width (Ry)=  0.0100
                       cart. coord. in units 2pi/alat
        k(    1) = (   0.0000000   0.0000000   0.0000000), wk =   0.0156250
        k(    2) = (   0.0000000   0.0000000   0.2500000), wk =   0.0937500
        k(    3) = (   0.0000000   0.0000000  -0.5000000), wk =   0.0468750
        k(    4) = (   0.0000000   0.2500000   0.2500000), wk =   0.1875000
        k(    5) = (   0.0000000   0.2500000  -0.5000000), wk =   0.1875000
        k(    6) = (   0.0000000  -0.5000000  -0.5000000), wk =   0.0468750
        k(    7) = (   0.2500000   0.2500000   0.2500000), wk =   0.1250000
        k(    8) = (   0.2500000   0.2500000  -0.5000000), wk =   0.1875000
        k(    9) = (   0.2500000  -0.5000000  -0.5000000), wk =   0.0937500
        k(   10) = (  -0.5000000  -0.5000000  -0.5000000), wk =   0.0156250

     Initial potential from superposition of free atoms

     starting charge   51.92374, renormalised to   52.00000
     Starting wfc are  120 randomized atomic wfcs
     Checking if some PAW data can be deallocated...

     Self-consistent Calculation

     iteration #  1     ecut=    50.00 Ry     beta=0.70
     Davidson diagonalization with overlap
     ethr =  1.00E-02,  avg # of iterations =  2.1

     total energy              =   -2248.20185233 Ry
     Harris-Foulkes estimate   =   -2248.54475381 Ry
     estimated scf accuracy    <       0.63014504 Ry

[...]

     total energy              =   -2248.29964615 Ry
     Harris-Foulkes estimate   =   -2248.29964672 Ry
     estimated scf accuracy    <       0.00000115 Ry

     iteration #  7     ecut=    50.00 Ry     beta=0.70
     Davidson diagonalization with overlap
     ethr =  2.22E-09,  avg # of iterations =  2.1

     End of self-consistent calculation

          k = 0.0000 0.0000 0.0000 (  4801 PWs)   bands (ev):

   -31.1253 -31.1253 -30.9585 -30.9585 -30.9585 -30.9585 -30.9583 -30.9583
   -12.0741 -12.0741 -12.0741 -12.0741 -12.0739 -12.0739 -11.5539 -11.5539
    -8.2646  -8.2646  -8.2644  -8.2644  -8.2644  -8.2644  -7.6195  -7.6195
    -7.6195  -7.6195  -7.6195  -7.6195  -7.1502  -7.1502  -7.1502  -7.1502
     3.8796   3.8796   6.3991   6.3991   6.3991   6.3991   6.3991   6.3991
     9.5069   9.5069   9.5069   9.5069   9.5069   9.5069   9.8234   9.8234
     9.8234   9.8234   9.8234   9.8234  10.8933  10.8933  13.5053  13.5053
    13.5053  13.5053  13.6704  13.6704  16.8595  16.8595

[...]

          k = 0.2500-0.5000-0.5000 (  4796 PWs)   bands (ev):

[...]

          k =-0.5000-0.5000-0.5000 (  4776 PWs)   bands (ev):

   -30.9997 -30.9997 -30.9997 -30.9997 -30.9997 -30.9997 -30.9995 -30.9995
   -11.9824 -11.9824 -11.9824 -11.9824 -11.9824 -11.9824 -11.9822 -11.9822
    -8.1614  -8.1614  -8.1614  -8.1614  -8.1613  -8.1613  -8.1613  -8.1613
    -7.3218  -7.3218  -7.3218  -7.3218  -7.3217  -7.3217  -7.3217  -7.3217
     5.7072   5.7072   5.7072   5.7072   5.7072   5.7072   5.7072   5.7072
     9.5479   9.5479   9.5479   9.5479   9.5479   9.5479   9.5479   9.5479
    13.5057  13.5057  13.5057  13.5058  13.5058  13.5058  13.5061  13.5068
    13.6964  13.6965  13.6965  13.6965  13.6965  13.6965

     the Fermi energy is    12.0826 ev

!    total energy              =   -2248.29964639 Ry
     Harris-Foulkes estimate   =   -2248.29964639 Ry
     estimated scf accuracy    <          5.1E-09 Ry

     total all-electron energy =    -90252.643023 Ry

     The total energy is the sum of the following terms:

     one-electron contribution =     -20.65532815 Ry
     hartree contribution      =      37.40480550 Ry
     xc contribution           =    -258.36051902 Ry
     ewald contribution        =    -258.58627504 Ry
     one-center paw contrib.   =   -1748.10050939 Ry
     smearing contrib. (-TS)   =      -0.00182029 Ry

     convergence has been achieved in   7 iterations

     Writing output data file 2347.save

     General routines

     Parallel routines

   This run was terminated on:  11:38:17  30Nov2022

   JOB DONE.
Removing 2347 from /home/shaharpit/tmp