     Program PWSCF v.6.1 (svn rev. 13369) starts on  3Jul2022 at 12:25:51

[...]

     Program PWSCF v.6.1 (svn rev. 13369) starts on  3Jul2022 at 12:25:51

     Current dimensions of program PWSCF are:
     Max number of different atomic species (ntypx) = 10
     Max number of k-points (npk) =  40000
     Max angular momentum in pseudopotentials (lmaxx) =  3

[...]

     Current dimensions of program PWSCF are:
     Max number of different atomic species (ntypx) = 10

[...]

     Current dimensions of program PWSCF are:
     Max number of different atomic species (ntypx) = 10
     Max number of k-points (npk) =  40000
     Max angular momentum in pseudopotentials (lmaxx) =  3
     Current dimensions of program PWSCF are:
     Max number of different atomic species (ntypx) = 10
     Max number of k-points (npk) =  40000
     Max angular momentum in pseudopotentials (lmaxx) =  3

[...]

     Current dimensions of program PWSCF are:
     Max number of different atomic species (ntypx) = 10
     Max number of k-points (npk) =  40000
     Max angular momentum in pseudopotentials (lmaxx) =  3
     Max number of k-points (npk) =  40000
     Max angular momentum in pseudopotentials (lmaxx) =  3

     Current dimensions of program PWSCF are:
     Max number of different atomic species (ntypx) = 10
     Max number of k-points (npk) =  40000
     Max angular momentum in pseudopotentials (lmaxx) =  3

     Current dimensions of program PWSCF are:
     Max number of different atomic species (ntypx) = 10
     Max number of k-points (npk) =  40000
     Max angular momentum in pseudopotentials (lmaxx) =  3
               file Gd.GGA-PBE-paw-v1.0.UPF: wavefunction(s)  Xn Xn Xn Xn Xn Xn renormalized
               file Gd.GGA-PBE-paw-v1.0.UPF: wavefunction(s)  Xn Xn Xn Xn Xn Xn renormalized
               file Gd.GGA-PBE-paw-v1.0.UPF: wavefunction(s)  Xn Xn Xn Xn Xn Xn renormalized
               file Gd.GGA-PBE-paw-v1.0.UPF: wavefunction(s)  Xn Xn Xn Xn Xn Xn renormalized
               file Gd.GGA-PBE-paw-v1.0.UPF: wavefunction(s)  Xn Xn Xn Xn Xn Xn renormalized

     Subspace diagonalization in iterative solution of the eigenvalue problem:
     a serial algorithm will be used

[...]

               file Gd.GGA-PBE-paw-v1.0.UPF: wavefunction(s)  Xn Xn Xn Xn Xn Xn renormalized

[...]

               file Gd.GGA-PBE-paw-v1.0.UPF: wavefunction(s)  Xn Xn Xn Xn Xn Xn renormalized
               file Gd.GGA-PBE-paw-v1.0.UPF: wavefunction(s)  Xn Xn Xn Xn Xn Xn renormalized
               file Gd.GGA-PBE-paw-v1.0.UPF: wavefunction(s)  Xn Xn Xn Xn Xn Xn renormalized
               file Gd.GGA-PBE-paw-v1.0.UPF: wavefunction(s)  Xn Xn Xn Xn Xn Xn renormalized
               file Gd.GGA-PBE-paw-v1.0.UPF: wavefunction(s)  Xn Xn Xn Xn Xn Xn renormalized
               file Gd.GGA-PBE-paw-v1.0.UPF: wavefunction(s)  Xn Xn Xn Xn Xn Xn renormalized
               file Gd.GGA-PBE-paw-v1.0.UPF: wavefunction(s)  Xn Xn Xn Xn Xn Xn renormalized
               file Gd.GGA-PBE-paw-v1.0.UPF: wavefunction(s)  Xn Xn Xn Xn Xn Xn renormalized
               file Gd.GGA-PBE-paw-v1.0.UPF: wavefunction(s)  Xn Xn Xn Xn Xn Xn renormalized

[...]

     Subspace diagonalization in iterative solution of the eigenvalue problem:
     a serial algorithm will be used

     Found symmetry operation: I + (  0.0000 -0.5000 -0.5000)
     This is a supercell, fractional translations are disabled
     Found symmetry operation: I + (  0.0000 -0.5000 -0.5000)
     This is a supercell, fractional translations are disabled
     Found symmetry operation: I + (  0.0000 -0.5000 -0.5000)
     Found symmetry operation: I + (  0.0000 -0.5000 -0.5000)
     This is a supercell, fractional translations are disabled
     Found symmetry operation: I + (  0.0000 -0.5000 -0.5000)
     This is a supercell, fractional translations are disabled
     Found symmetry operation: I + (  0.0000 -0.5000 -0.5000)
     This is a supercell, fractional translations are disabled
     Found symmetry operation: I + (  0.0000 -0.5000 -0.5000)
     This is a supercell, fractional translations are disabled
     Found symmetry operation: I + (  0.0000 -0.5000 -0.5000)
     This is a supercell, fractional translations are disabled
     This is a supercell, fractional translations are disabled
     Found symmetry operation: I + (  0.0000 -0.5000 -0.5000)
     This is a supercell, fractional translations are disabled
     Found symmetry operation: I + (  0.0000 -0.5000 -0.5000)
     This is a supercell, fractional translations are disabled
     Found symmetry operation: I + (  0.0000 -0.5000 -0.5000)
     This is a supercell, fractional translations are disabled
     Found symmetry operation: I + (  0.0000 -0.5000 -0.5000)
     This is a supercell, fractional translations are disabled
     Found symmetry operation: I + (  0.0000 -0.5000 -0.5000)
     This is a supercell, fractional translations are disabled
     Found symmetry operation: I + (  0.0000 -0.5000 -0.5000)
     This is a supercell, fractional translations are disabled
     Found symmetry operation: I + (  0.0000 -0.5000 -0.5000)
     This is a supercell, fractional translations are disabled
     Found symmetry operation: I + (  0.0000 -0.5000 -0.5000)
     This is a supercell, fractional translations are disabled

     bravais-lattice index     =            0
     lattice parameter (alat)  =      10.3447  a.u.
     unit-cell volume          =    1107.0280 (a.u.)^3
     number of atoms/cell      =           12
     number of atomic types    =            2
     number of electrons       =        80.00
     number of Kohn-Sham states=           48
     kinetic-energy cutoff     =      50.0000  Ry
     charge density cutoff     =     200.0000  Ry

     bravais-lattice index     =            0
     lattice parameter (alat)  =      10.3447  a.u.
     unit-cell volume          =    1107.0280 (a.u.)^3
     number of atoms/cell      =           12
     number of atomic types    =            2
     number of electrons       =        80.00
     number of Kohn-Sham states=           48
     kinetic-energy cutoff     =      50.0000  Ry
     charge density cutoff     =     200.0000  Ry
     convergence threshold     =      1.0E-06
     mixing beta               =       0.7000

     bravais-lattice index     =            0
     lattice parameter (alat)  =      10.3447  a.u.
     unit-cell volume          =    1107.0280 (a.u.)^3
     number of atoms/cell      =           12
     number of atomic types    =            2
     number of electrons       =        80.00
     number of Kohn-Sham states=           48
     kinetic-energy cutoff     =      50.0000  Ry
     charge density cutoff     =     200.0000  Ry
     convergence threshold     =      1.0E-06

     bravais-lattice index     =            0
     lattice parameter (alat)  =      10.3447  a.u.
     unit-cell volume          =    1107.0280 (a.u.)^3
     number of atoms/cell      =           12
     number of atomic types    =            2
     number of electrons       =        80.00
     number of Kohn-Sham states=           48
     kinetic-energy cutoff     =      50.0000  Ry
     charge density cutoff     =     200.0000  Ry
     convergence threshold     =      1.0E-06
     mixing beta               =       0.7000
     number of iterations used =            8  plain     mixing
     Exchange-correlation      = PBE ( 1  4  3  4 0 0)
     nstep                     =          150

     convergence threshold     =      1.0E-06
     mixing beta               =       0.7000
     number of iterations used =            8  plain     mixing
     Exchange-correlation      = PBE ( 1  4  3  4 0 0)
     nstep                     =          150

     number of iterations used =            8  plain     mixing
     Exchange-correlation      = PBE ( 1  4  3  4 0 0)
     nstep                     =          150

     mixing beta               =       0.7000
     number of iterations used =            8  plain     mixing
     Exchange-correlation      = PBE ( 1  4  3  4 0 0)
     nstep                     =          150

     bravais-lattice index     =            0
     lattice parameter (alat)  =      10.3447  a.u.
     unit-cell volume          =    1107.0280 (a.u.)^3
     number of atoms/cell      =           12
     number of atomic types    =            2
     number of electrons       =        80.00

[...]

     bravais-lattice index     =            0
     lattice parameter (alat)  =      10.3447  a.u.
     unit-cell volume          =    1107.0280 (a.u.)^3
     number of atoms/cell      =           12
     number of atomic types    =            2
     number of electrons       =        80.00
     number of Kohn-Sham states=           48
     kinetic-energy cutoff     =      50.0000  Ry
     charge density cutoff     =     200.0000  Ry

     bravais-lattice index     =            0
     lattice parameter (alat)  =      10.3447  a.u.
     unit-cell volume          =    1107.0280 (a.u.)^3
     number of atoms/cell      =           12
     number of atomic types    =            2
     number of electrons       =        80.00
     number of Kohn-Sham states=           48
     kinetic-energy cutoff     =      50.0000  Ry
     charge density cutoff     =     200.0000  Ry
     bravais-lattice index     =            0
     lattice parameter (alat)  =      10.3447  a.u.
     unit-cell volume          =    1107.0280 (a.u.)^3
     number of atoms/cell      =           12
     number of atomic types    =            2
     number of electrons       =        80.00
     number of Kohn-Sham states=           48
     kinetic-energy cutoff     =      50.0000  Ry
     charge density cutoff     =     200.0000  Ry
     convergence threshold     =      1.0E-06

     bravais-lattice index     =            0
     lattice parameter (alat)  =      10.3447  a.u.
     unit-cell volume          =    1107.0280 (a.u.)^3
     number of atoms/cell      =           12
     number of atomic types    =            2
     number of electrons       =        80.00
     number of Kohn-Sham states=           48
     kinetic-energy cutoff     =      50.0000  Ry
     charge density cutoff     =     200.0000  Ry
     convergence threshold     =      1.0E-06

     bravais-lattice index     =            0
     lattice parameter (alat)  =      10.3447  a.u.
     unit-cell volume          =    1107.0280 (a.u.)^3
     number of atoms/cell      =           12
     number of atomic types    =            2
     number of electrons       =        80.00
     number of Kohn-Sham states=           48
     kinetic-energy cutoff     =      50.0000  Ry
     charge density cutoff     =     200.0000  Ry
     convergence threshold     =      1.0E-06
     mixing beta               =       0.7000
     number of iterations used =            8  plain     mixing

     bravais-lattice index     =            0
     lattice parameter (alat)  =      10.3447  a.u.
     unit-cell volume          =    1107.0280 (a.u.)^3
     number of atoms/cell      =           12
     number of atomic types    =            2
     number of Kohn-Sham states=           48
     kinetic-energy cutoff     =      50.0000  Ry
     charge density cutoff     =     200.0000  Ry
[...]

     number of k points=    10  gaussian smearing, width (Ry)=  0.0100
                       cart. coord. in units 2pi/alat
        k(    1) = (   0.0000000   0.0000000   0.0000000), wk =   0.0312500
        k(    2) = (   0.0000000   0.0000000   0.2500000), wk =   0.1875000
        k(    3) = (   0.0000000   0.0000000  -0.5000000), wk =   0.0937500
        k(    4) = (   0.0000000   0.2500000   0.2500000), wk =   0.3750000
        k(    5) = (   0.0000000   0.2500000  -0.5000000), wk =   0.3750000
        k(    6) = (   0.0000000  -0.5000000  -0.5000000), wk =   0.0937500
        k(    7) = (   0.2500000   0.2500000   0.2500000), wk =   0.2500000
        k(    8) = (   0.2500000   0.2500000  -0.5000000), wk =   0.3750000
        k(    9) = (   0.2500000  -0.5000000  -0.5000000), wk =   0.1875000
        k(   10) = (  -0.5000000  -0.5000000  -0.5000000), wk =   0.0312500

     Initial potential from superposition of free atoms

[...]

     Initial potential from superposition of free atoms

     starting charge   79.97927, renormalised to   80.00000
     starting charge   79.97927, renormalised to   80.00000
     starting charge   79.97927, renormalised to   80.00000
     starting charge   79.97927, renormalised to   80.00000
     starting charge   79.97927, renormalised to   80.00000
     starting charge   79.97927, renormalised to   80.00000
     starting charge   79.97927, renormalised to   80.00000
     starting charge   79.97927, renormalised to   80.00000
     starting charge   79.97927, renormalised to   80.00000
     starting charge   79.97927, renormalised to   80.00000
     starting charge   79.97927, renormalised to   80.00000
     starting charge   79.97927, renormalised to   80.00000
     starting charge   79.97927, renormalised to   80.00000
     starting charge   79.97927, renormalised to   80.00000

     starting charge   79.97927, renormalised to   80.00000

     starting charge   79.97927, renormalised to   80.00000
     Starting wfc are  136 randomized atomic wfcs
     Starting wfc are  136 randomized atomic wfcs
     Starting wfc are  136 randomized atomic wfcs
     Starting wfc are  136 randomized atomic wfcs
     Starting wfc are  136 randomized atomic wfcs
     Starting wfc are  136 randomized atomic wfcs
     Starting wfc are  136 randomized atomic wfcs
     Starting wfc are  136 randomized atomic wfcs
     Starting wfc are  136 randomized atomic wfcs
     Starting wfc are  136 randomized atomic wfcs
     Starting wfc are  136 randomized atomic wfcs
     Starting wfc are  136 randomized atomic wfcs
     Starting wfc are  136 randomized atomic wfcs
     Starting wfc are  136 randomized atomic wfcs
     Starting wfc are  136 randomized atomic wfcs
     Starting wfc are  136 randomized atomic wfcs
     Checking if some PAW data can be deallocated...

     Self-consistent Calculation

     iteration #  1     ecut=    50.00 Ry     beta=0.70
     Davidson diagonalization with overlap
     Checking if some PAW data can be deallocated...

[...]

     iteration #  1     ecut=    50.00 Ry     beta=0.70

     Davidson diagonalization with overlap
     Self-consistent Calculation

[...]

     iteration #  1     ecut=    50.00 Ry     beta=0.70
     Davidson diagonalization with overlap

[...]

     iteration #  1     ecut=    50.00 Ry     beta=0.70
     Davidson diagonalization with overlap
     Checking if some PAW data can be deallocated...

     Self-consistent Calculation

     iteration #  1     ecut=    50.00 Ry     beta=0.70
     Davidson diagonalization with overlap
     ethr =  1.00E-02,  avg # of iterations =  1.0
     ethr =  1.00E-02,  avg # of iterations =  1.0
     ethr =  1.00E-02,  avg # of iterations =  1.0
     ethr =  1.00E-02,  avg # of iterations =  1.0
     ethr =  1.00E-02,  avg # of iterations =  1.0
     ethr =  1.00E-02,  avg # of iterations =  1.0
     ethr =  1.00E-02,  avg # of iterations =  1.0
     ethr =  1.00E-02,  avg # of iterations =  1.0
     ethr =  1.00E-02,  avg # of iterations =  1.0
     ethr =  1.00E-02,  avg # of iterations =  1.0
     ethr =  1.00E-02,  avg # of iterations =  1.0
     ethr =  1.00E-02,  avg # of iterations =  1.0
     ethr =  1.00E-02,  avg # of iterations =  1.0
     ethr =  1.00E-02,  avg # of iterations =  1.0
     ethr =  1.00E-02,  avg # of iterations =  1.0
     ethr =  1.00E-02,  avg # of iterations =  1.0

     total energy              =   -2710.40715003 Ry
     Harris-Foulkes estimate   =   -2744.13859351 Ry
     estimated scf accuracy    <      28.84919991 Ry

[...]

     ethr =  1.00E-02,  avg # of iterations =  1.0

[...]

     ethr =  3.49E-05,  avg # of iterations =  1.2

[...]

     iteration # 87     ecut=    50.00 Ry     beta=0.70
     ethr =  3.49E-05,  avg # of iterations =  4.3
     Davidson diagonalization with overlap

[...]

     iteration #131     ecut=    50.00 Ry     beta=0.70

[...]

     iteration #136     ecut=    50.00 Ry     beta=0.70
     Davidson diagonalization with overlap
     ethr =  2.67E-09,  avg # of iterations =  5.9
     ethr =  2.67E-09,  avg # of iterations =  5.9
     ethr =  2.67E-09,  avg # of iterations =  1.0
     ethr =  2.67E-09,  avg # of iterations =  2.6
     ethr =  2.67E-09,  avg # of iterations =  2.6
     c_bands:  1 eigenvalues not converged
     ethr =  2.67E-09,  avg # of iterations =  5.3

[...]

     iteration #133     ecut=    50.00 Ry     beta=0.70
     Davidson diagonalization with overlap
     ethr =  2.67E-09,  avg # of iterations =  5.3
     ethr =  2.67E-09,  avg # of iterations =  1.0
     ethr =  2.67E-09,  avg # of iterations =  2.6
     ethr =  2.67E-09,  avg # of iterations =  5.3
     c_bands:  1 eigenvalues not converged

[...]

     iteration #137     ecut=    50.00 Ry     beta=0.70
     Davidson diagonalization with overlap
     c_bands:  1 eigenvalues not converged

[...]

     iteration #137     ecut=    50.00 Ry     beta=0.70
     Davidson diagonalization with overlap
     c_bands:  1 eigenvalues not converged
     ethr =  2.67E-09,  avg # of iterations =  5.3
     ethr =  2.67E-09,  avg # of iterations =  5.3
     ethr =  2.67E-09,  avg # of iterations =  2.6

[...]

     iteration #134     ecut=    50.00 Ry     beta=0.70
     Davidson diagonalization with overlap
     c_bands:  1 eigenvalues not converged
     ethr =  2.67E-09,  avg # of iterations =  2.6
     c_bands:  1 eigenvalues not converged
     c_bands:  1 eigenvalues not converged
     ethr =  2.67E-09,  avg # of iterations =  5.9
     ethr =  2.67E-09,  avg # of iterations =  5.9

[...]

     iteration #138     ecut=    50.00 Ry     beta=0.70
     Davidson diagonalization with overlap
     c_bands:  1 eigenvalues not converged
     ethr =  2.67E-09,  avg # of iterations =  5.9
     c_bands:  1 eigenvalues not converged
     c_bands:  1 eigenvalues not converged
     c_bands:  1 eigenvalues not converged

[...]

     iteration #136     ecut=    50.00 Ry     beta=0.70
     Davidson diagonalization with overlap
     ethr =  2.67E-09,  avg # of iterations =  9.5
     ethr =  2.67E-09,  avg # of iterations =  9.5
     ethr =  2.67E-09,  avg # of iterations =  9.5
     c_bands:  1 eigenvalues not converged
     c_bands:  1 eigenvalues not converged
     ethr =  2.67E-09,  avg # of iterations =  6.5
     c_bands:  1 eigenvalues not converged

[...]

     iteration #139     ecut=    50.00 Ry     beta=0.70
     Davidson diagonalization with overlap
     ethr =  2.67E-09,  avg # of iterations =  6.5
     ethr =  2.67E-09,  avg # of iterations =  9.5
     ethr =  2.67E-09,  avg # of iterations =  5.3
     ethr =  2.67E-09,  avg # of iterations =  9.5
     ethr =  2.67E-09,  avg # of iterations =  9.5
     ethr =  2.67E-09,  avg # of iterations =  5.4
     ethr =  2.67E-09,  avg # of iterations =  5.4
     ethr =  2.67E-09,  avg # of iterations =  5.4
     ethr =  2.67E-09,  avg # of iterations =  4.2
     c_bands:  1 eigenvalues not converged

[...]

     iteration #140     ecut=    50.00 Ry     beta=0.70
     Davidson diagonalization with overlap
     c_bands:  1 eigenvalues not converged

[...]

     iteration #140     ecut=    50.00 Ry     beta=0.70
     Davidson diagonalization with overlap
     c_bands:  1 eigenvalues not converged
     ethr =  2.67E-09,  avg # of iterations =  5.4

[...]

     iteration #140     ecut=    50.00 Ry     beta=0.70
     Davidson diagonalization with overlap
     ethr =  2.67E-09,  avg # of iterations =  9.5
     ethr =  2.67E-09,  avg # of iterations =  5.4
     c_bands:  1 eigenvalues not converged
     ethr =  2.67E-09,  avg # of iterations =  9.5
     ethr =  2.67E-09,  avg # of iterations =  4.2
     ethr =  2.67E-09,  avg # of iterations =  4.2
     ethr =  2.67E-09,  avg # of iterations =  6.5
     ethr =  2.67E-09,  avg # of iterations =  6.5
     ethr =  2.67E-09,  avg # of iterations =  4.2
     ethr =  2.67E-09,  avg # of iterations =  6.5
     ethr =  2.67E-09,  avg # of iterations =  4.9

[...]

     End of self-consistent calculation

          k = 0.0000 0.0000 0.0000 (  6619 PWs)   bands (ev):

   -32.7081 -32.6649 -32.6648 -32.6648 -10.9666 -10.9666 -10.9666 -10.6360
   -10.6360 -10.6360 -10.6360 -10.6360 -10.6360 -10.4726 -10.4726 -10.4726
     2.6798   5.4580   5.4580   5.4580   6.5593   6.5593   6.5593   7.8332
     8.6096   8.6096   8.6096   9.3969   9.3969   9.3969   9.3970   9.3970
     9.3970   9.4020   9.4020   9.4020   9.5300   9.5300   9.5300   9.5621
     9.5621   9.5621   9.6580   9.6580   9.6580   9.6581   9.6581   9.6581

[...]

          k =-0.5000-0.5000-0.5000 (  6704 PWs)   bands (ev):

[...]

     the Fermi energy is     9.5715 ev

!    total energy              =   -2743.71201235 Ry
     Harris-Foulkes estimate   =   -2743.71201267 Ry
     estimated scf accuracy    <       0.00000024 Ry

     The total energy is the sum of the following terms:

     one-electron contribution =    -461.16346956 Ry
     hartree contribution      =     277.95341050 Ry
     xc contribution           =     -95.92477746 Ry
     ewald contribution        =    -601.11093083 Ry
     one-center paw contrib.   =   -1863.40087297 Ry
     smearing contrib. (-TS)   =      -0.06537204 Ry

     convergence has been achieved in 146 iterations

[...]

     Forces acting on atoms (cartesian axes, Ry/au):

     atom    1 type  1   force =     0.00000000    0.00000000    0.00000000
     atom    2 type  1   force =     0.00000000   -0.00000000   -0.00000000
     atom    3 type  1   force =     0.00000000    0.00000000    0.00000000
     atom    4 type  1   force =     0.00000000    0.00000000    0.00000000
     atom    5 type  2   force =     0.00000046    0.00000046    0.00000046
     atom    6 type  2   force =     0.00000046   -0.00000046   -0.00000046
     atom    7 type  2   force =    -0.00000046    0.00000046   -0.00000046
     atom    8 type  2   force =    -0.00000046   -0.00000046    0.00000046
     atom    9 type  2   force =     0.00000046   -0.00000046    0.00000046
     atom   10 type  2   force =     0.00000046    0.00000046   -0.00000046
     atom   11 type  2   force =    -0.00000046   -0.00000046   -0.00000046
     atom   12 type  2   force =    -0.00000046    0.00000046    0.00000046

     Total force =     0.000002     Total SCF correction =     0.000123
     SCF correction compared to forces is large: reduce conv_thr to get better values

     BFGS Geometry Optimization

     bfgs converged in   1 scf cycles and   0 bfgs steps
     (criteria: energy <  1.0E-04 Ry, force <  1.0E-03 Ry/Bohr)

     End of BFGS Geometry Optimization

     Final energy   =   -2743.7120123527 Ry
Begin final coordinates

ATOMIC_POSITIONS (crystal)
Gd       0.000000000   0.000000000   0.000000000
Gd       0.000000000   0.500000000   0.500000000
Gd       0.500000000   0.000000000   0.500000000
Gd       0.500000000   0.500000000   0.000000000
H        0.250000000   0.250000000   0.250000000
H        0.250000000   0.750000000   0.750000000
H        0.750000000   0.250000000   0.750000000
H        0.750000000   0.750000000   0.250000000
H        0.250000000   0.750000000   0.250000000
H        0.250000000   0.250000000   0.750000000
H        0.750000000   0.750000000   0.750000000
H        0.750000000   0.250000000   0.250000000
End final coordinates

     Writing output data file 2248.save
     ethr =  2.67E-09,  avg # of iterations =  4.5

[...]

     General routines

     Parallel routines

   This run was terminated on:  13: 4:35   3Jul2022

   JOB DONE.
     ethr =  2.67E-09,  avg # of iterations =  1.5

[...]

     convergence has been achieved in 146 iterations
     ethr =  2.67E-09,  avg # of iterations =  5.1

[...]

     convergence has been achieved in 146 iterations
     ethr =  2.28E-09,  avg # of iterations =  1.8
     ethr =  2.67E-09,  avg # of iterations =  5.1

[...]

     Writing output data file 2248.save

[...]

     Forces acting on atoms (cartesian axes, Ry/au):

     atom    1 type  1   force =     0.00000000    0.00000000    0.00000000
     atom    2 type  1   force =     0.00000000   -0.00000000   -0.00000000
     atom    3 type  1   force =     0.00000000    0.00000000    0.00000000
     atom    4 type  1   force =     0.00000000    0.00000000    0.00000000
     atom    5 type  2   force =     0.00000046    0.00000046    0.00000046
     atom    6 type  2   force =     0.00000046   -0.00000046   -0.00000046
     atom    7 type  2   force =    -0.00000046    0.00000046   -0.00000046
     atom    8 type  2   force =    -0.00000046   -0.00000046    0.00000046
     atom    9 type  2   force =     0.00000046   -0.00000046    0.00000046
     atom   10 type  2   force =     0.00000046    0.00000046   -0.00000046
     atom   11 type  2   force =    -0.00000046   -0.00000046   -0.00000046
     atom   12 type  2   force =    -0.00000046    0.00000046    0.00000046

     Total force =     0.000002     Total SCF correction =     0.000123
     SCF correction compared to forces is large: reduce conv_thr to get better values

     BFGS Geometry Optimization

     bfgs converged in   1 scf cycles and   0 bfgs steps
     (criteria: energy <  1.0E-04 Ry, force <  1.0E-03 Ry/Bohr)

     End of BFGS Geometry Optimization

     Final energy   =   -2743.7120123527 Ry
Begin final coordinates

ATOMIC_POSITIONS (crystal)
Gd       0.000000000   0.000000000   0.000000000
Gd       0.000000000   0.500000000   0.500000000
Gd       0.500000000   0.000000000   0.500000000
Gd       0.500000000   0.500000000   0.000000000
H        0.250000000   0.250000000   0.250000000
H        0.250000000   0.750000000   0.750000000
H        0.750000000   0.250000000   0.750000000
H        0.750000000   0.750000000   0.250000000
H        0.250000000   0.750000000   0.250000000
H        0.250000000   0.250000000   0.750000000
H        0.750000000   0.750000000   0.750000000
H        0.750000000   0.250000000   0.250000000
End final coordinates

     Writing output data file 2248.save

[...]

     End of self-consistent calculation

[...]

          k = 0.2500-0.5000-0.5000 (  6572 PWs)   bands (ev):

[...]

          k =-0.5000-0.5000-0.5000 (  6704 PWs)   bands (ev):

   -32.6756 -32.6756 -32.6756 -32.6756 -10.9748 -10.9748 -10.9748 -10.9748
   -10.5343 -10.5343 -10.5343 -10.5343 -10.5343 -10.5343 -10.5343 -10.5343
     4.6082   4.6082   4.6082   4.6082   6.6632   6.6632   6.6632   6.6632
     9.3878   9.3878   9.3878   9.3878   9.3878   9.3878   9.3880   9.3880
     9.5136   9.5136   9.5136   9.5138   9.5345   9.5345   9.5345   9.5348
     9.6690   9.6690   9.6690   9.6691   9.6691   9.6691   9.6693   9.6693

     the Fermi energy is     9.5715 ev

!    total energy              =   -2743.71201235 Ry
     Harris-Foulkes estimate   =   -2743.71201267 Ry
     estimated scf accuracy    <       0.00000024 Ry

     The total energy is the sum of the following terms:

     one-electron contribution =    -461.16346956 Ry
     hartree contribution      =     277.95341050 Ry
     xc contribution           =     -95.92477746 Ry
     ewald contribution        =    -601.11093083 Ry
     one-center paw contrib.   =   -1863.40087297 Ry
     smearing contrib. (-TS)   =      -0.06537204 Ry

     convergence has been achieved in 146 iterations

[...]

     iteration #144     ecut=    50.00 Ry     beta=0.70
     Davidson diagonalization with overlap

     total energy              =   -2743.71201245 Ry
     Harris-Foulkes estimate   =   -2743.71201252 Ry
     estimated scf accuracy    <       0.00000183 Ry

     iteration #145     ecut=    50.00 Ry     beta=0.70
     Davidson diagonalization with overlap
     ethr =  2.28E-09,  avg # of iterations =  1.8
     ethr =  2.67E-09,  avg # of iterations =  5.1

     General routines

     Parallel routines

   This run was terminated on:  13: 4:43   3Jul2022

   JOB DONE.