     Program PWSCF v.6.1 (svn rev. 13369) starts on  3Jul2022 at 12:25:51

[...]

     This program is part of the open-source Quantum ESPRESSO suite

[...]

     Program PWSCF v.6.1 (svn rev. 13369) starts on  3Jul2022 at 12:25:51

     Current dimensions of program PWSCF are:
     Max number of different atomic species (ntypx) = 10
     Max number of k-points (npk) =  40000
     Max angular momentum in pseudopotentials (lmaxx) =  3

[...]

     Current dimensions of program PWSCF are:
     Max number of different atomic species (ntypx) = 10
     Max number of k-points (npk) =  40000
     Max angular momentum in pseudopotentials (lmaxx) =  3

     Current dimensions of program PWSCF are:
     Max number of different atomic species (ntypx) = 10
     Max number of k-points (npk) =  40000
     Current dimensions of program PWSCF are:
     Max number of different atomic species (ntypx) = 10
     Max number of k-points (npk) =  40000
     Max angular momentum in pseudopotentials (lmaxx) =  3
     Current dimensions of program PWSCF are:
     Max number of different atomic species (ntypx) = 10
     Max number of k-points (npk) =  40000
     Max angular momentum in pseudopotentials (lmaxx) =  3
     Max angular momentum in pseudopotentials (lmaxx) =  3

     Current dimensions of program PWSCF are:
     Max number of different atomic species (ntypx) = 10
     Max number of k-points (npk) =  40000
     Max angular momentum in pseudopotentials (lmaxx) =  3
     Current dimensions of program PWSCF are:
     Max number of different atomic species (ntypx) = 10
     Max number of k-points (npk) =  40000
     Max angular momentum in pseudopotentials (lmaxx) =  3
               file Gd.GGA-PBE-paw-v1.0.UPF: wavefunction(s)  Xn Xn Xn Xn Xn Xn renormalized
               file Gd.GGA-PBE-paw-v1.0.UPF: wavefunction(s)  Xn Xn Xn Xn Xn Xn renormalized
               file Gd.GGA-PBE-paw-v1.0.UPF: wavefunction(s)  Xn Xn Xn Xn Xn Xn renormalized
               file Gd.GGA-PBE-paw-v1.0.UPF: wavefunction(s)  Xn Xn Xn Xn Xn Xn renormalized
               file Gd.GGA-PBE-paw-v1.0.UPF: wavefunction(s)  Xn Xn Xn Xn Xn Xn renormalized
               file Gd.GGA-PBE-paw-v1.0.UPF: wavefunction(s)  Xn Xn Xn Xn Xn Xn renormalized
               file Gd.GGA-PBE-paw-v1.0.UPF: wavefunction(s)  Xn Xn Xn Xn Xn Xn renormalized

     Subspace diagonalization in iterative solution of the eigenvalue problem:
     a serial algorithm will be used

     Found symmetry operation: I + (  0.0000 -0.5000 -0.5000)
     This is a supercell, fractional translations are disabled

[...]

     bravais-lattice index     =            0
     lattice parameter (alat)  =       9.3029  a.u.
     unit-cell volume          =     805.1182 (a.u.)^3
     number of atoms/cell      =           12
     number of atomic types    =            2
     number of electrons       =        80.00
     number of Kohn-Sham states=           48
     kinetic-energy cutoff     =      50.0000  Ry
     charge density cutoff     =     200.0000  Ry
     convergence threshold     =      1.0E-06
     mixing beta               =       0.7000
     number of iterations used =            8  plain     mixing
     Exchange-correlation      = PBE ( 1  4  3  4 0 0)
     nstep                     =          150

     celldm(1)=   9.302933  celldm(2)=   0.000000  celldm(3)=   0.000000
     celldm(4)=   0.000000  celldm(5)=   0.000000  celldm(6)=   0.000000

     crystal axes: (cart. coord. in units of alat)
               a(1) = (   1.000000   0.000000   0.000000 )
               a(2) = (   0.000000   1.000000   0.000000 )
               a(3) = (   0.000000   0.000000   1.000000 )

     reciprocal axes: (cart. coord. in units 2 pi/alat)
               b(1) = (  1.000000  0.000000  0.000000 )
               b(2) = (  0.000000  1.000000  0.000000 )
               b(3) = (  0.000000  0.000000  1.000000 )

     PseudoPot. # 1 for Gd read from file:
     /home/shaharpit/AcHProject/meam_fit/dft/qe_potentials/Gd.GGA-PBE-paw-v1.0.UPF
     MD5 check sum: 3e8e0d208da550914ae52eaf991d13de
     Pseudo is Projector augmented-wave + core cor, Zval = 18.0
     Generated using ATOMPAW code
     Shape of augmentation charge: BESSEL
     Using radial grid of 1110 points,  8 beta functions with:
                l(1) =   0
                l(2) =   0
                l(3) =   1
                l(4) =   1
                l(5) =   2
                l(6) =   2
                l(7) =   3
                l(8) =   3
     Q(r) pseudized with 0 coefficients

     PseudoPot. # 2 for  H read from file:
     /home/shaharpit/AcHProject/meam_fit/dft/qe_potentials/H.pbe-rrkjus_psl.1.0.0.UPF
     MD5 check sum: f52b6d4d1c606e5624b1dc7b2218f220
     Pseudo is Ultrasoft, Zval =  1.0
     Generated using "atomic" code by A. Dal Corso  v.5.1
     Using radial grid of  929 points,  2 beta functions with:
                l(1) =   0
                l(2) =   0
     Q(r) pseudized with 0 coefficients

     atomic species   valence    mass     pseudopotential
        Gd            18.00   157.25000     Gd( 1.00)
        H              1.00     1.00794      H( 1.00)

     48 Sym. Ops., with inversion, found

   Cartesian axes

     site n.     atom                  positions (alat units)
         1           Gd  tau(   1) = (   0.0000000   0.0000000   0.0000000  )
         2           Gd  tau(   2) = (   0.0000000   0.5000000   0.5000000  )
         3           Gd  tau(   3) = (   0.5000000   0.0000000   0.5000000  )
         4           Gd  tau(   4) = (   0.5000000   0.5000000   0.0000000  )
         5           H   tau(   5) = (   0.2500000   0.2500000   0.2500000  )
         6           H   tau(   6) = (   0.2500000   0.7500000   0.7500000  )
         7           H   tau(   7) = (   0.7500000   0.2500000   0.7500000  )
         8           H   tau(   8) = (   0.7500000   0.7500000   0.2500000  )
         9           H   tau(   9) = (   0.2500000   0.7500000   0.2500000  )
        10           H   tau(  10) = (   0.2500000   0.2500000   0.7500000  )
        11           H   tau(  11) = (   0.7500000   0.7500000   0.7500000  )
        12           H   tau(  12) = (   0.7500000   0.2500000   0.2500000  )

     number of k points=    10  gaussian smearing, width (Ry)=  0.0100
                       cart. coord. in units 2pi/alat
        k(    1) = (   0.0000000   0.0000000   0.0000000), wk =   0.0312500
        k(    2) = (   0.0000000   0.0000000   0.2500000), wk =   0.1875000
        k(    3) = (   0.0000000   0.0000000  -0.5000000), wk =   0.0937500
        k(    4) = (   0.0000000   0.2500000   0.2500000), wk =   0.3750000
        k(    5) = (   0.0000000   0.2500000  -0.5000000), wk =   0.3750000
        k(    6) = (   0.0000000  -0.5000000  -0.5000000), wk =   0.0937500
        k(    7) = (   0.2500000   0.2500000   0.2500000), wk =   0.2500000
        k(    8) = (   0.2500000   0.2500000  -0.5000000), wk =   0.3750000
        k(    9) = (   0.2500000  -0.5000000  -0.5000000), wk =   0.1875000
        k(   10) = (  -0.5000000  -0.5000000  -0.5000000), wk =   0.0312500

[...]

               file Gd.GGA-PBE-paw-v1.0.UPF: wavefunction(s)  Xn Xn Xn Xn Xn Xn renormalized
               file Gd.GGA-PBE-paw-v1.0.UPF: wavefunction(s)  Xn Xn Xn Xn Xn Xn renormalized
               file Gd.GGA-PBE-paw-v1.0.UPF: wavefunction(s)  Xn Xn Xn Xn Xn Xn renormalized
     Found symmetry operation: I + (  0.0000 -0.5000 -0.5000)
     This is a supercell, fractional translations are disabled

[...]

     Found symmetry operation: I + (  0.0000 -0.5000 -0.5000)
     Found symmetry operation: I + (  0.0000 -0.5000 -0.5000)
     This is a supercell, fractional translations are disabled
     Found symmetry operation: I + (  0.0000 -0.5000 -0.5000)
     This is a supercell, fractional translations are disabled
     This is a supercell, fractional translations are disabled

     Subspace diagonalization in iterative solution of the eigenvalue problem:

     a serial algorithm will be used

[...]

               a(3) = (   0.000000   0.000000   1.000000 )

     bravais-lattice index     =            0
     lattice parameter (alat)  =       9.3029  a.u.
     unit-cell volume          =     805.1182 (a.u.)^3

     number of atoms/cell      =           12
     number of atomic types    =            2
     number of electrons       =        80.00
     number of Kohn-Sham states=           48
     kinetic-energy cutoff     =      50.0000  Ry
     charge density cutoff     =     200.0000  Ry
     convergence threshold     =      1.0E-06
     mixing beta               =       0.7000
     number of iterations used =            8  plain     mixing
     Exchange-correlation      = PBE ( 1  4  3  4 0 0)
     reciprocal axes: (cart. coord. in units 2 pi/alat)
     nstep                     =          150

[...]

     crystal axes: (cart. coord. in units of alat)
               a(1) = (   1.000000   0.000000   0.000000 )
               b(1) = (  1.000000  0.000000  0.000000 )
               a(2) = (   0.000000   1.000000   0.000000 )
               a(3) = (   0.000000   0.000000   1.000000 )

[...]

     PseudoPot. # 1 for Gd read from file:
     /home/shaharpit/AcHProject/meam_fit/dft/qe_potentials/Gd.GGA-PBE-paw-v1.0.UPF
     MD5 check sum: 3e8e0d208da550914ae52eaf991d13de
               b(2) = (  0.000000  1.000000  0.000000 )
     Pseudo is Projector augmented-wave + core cor, Zval = 18.0
     Generated using ATOMPAW code
     Shape of augmentation charge: BESSEL
     Using radial grid of 1110 points,  8 beta functions with:
                l(1) =   0
                l(2) =   0
                l(3) =   1
                l(4) =   1
                l(5) =   2
                l(6) =   2
               b(3) = (  0.000000  0.000000  1.000000 )

                l(7) =   3
                l(8) =   3
     Q(r) pseudized with 0 coefficients

[...]

     PseudoPot. # 1 for Gd read from file:
     site n.     atom                  positions (alat units)
         1           Gd  tau(   1) = (   0.0000000   0.0000000   0.0000000  )
         2           Gd  tau(   2) = (   0.0000000   0.5000000   0.5000000  )
         3           Gd  tau(   3) = (   0.5000000   0.0000000   0.5000000  )
         4           Gd  tau(   4) = (   0.5000000   0.5000000   0.0000000  )
         5           H   tau(   5) = (   0.2500000   0.2500000   0.2500000  )
         6           H   tau(   6) = (   0.2500000   0.7500000   0.7500000  )
         7           H   tau(   7) = (   0.7500000   0.2500000   0.7500000  )
         8           H   tau(   8) = (   0.7500000   0.7500000   0.2500000  )
         9           H   tau(   9) = (   0.2500000   0.7500000   0.2500000  )
     /home/shaharpit/AcHProject/meam_fit/dft/qe_potentials/Gd.GGA-PBE-paw-v1.0.UPF
        10           H   tau(  10) = (   0.2500000   0.2500000   0.7500000  )
        11           H   tau(  11) = (   0.7500000   0.7500000   0.7500000  )
        12           H   tau(  12) = (   0.7500000   0.2500000   0.2500000  )

[...]

     MD5 check sum: 3e8e0d208da550914ae52eaf991d13de
     Pseudo is Projector augmented-wave + core cor, Zval = 18.0
     Generated using ATOMPAW code
     Shape of augmentation charge: BESSEL
[...]
     /home/shaharpit/AcHProject/meam_fit/dft/qe_potentials/H.pbe-rrkjus_psl.1.0.0.UPF
     MD5 check sum: f52b6d4d1c606e5624b1dc7b2218f220
     Pseudo is Ultrasoft, Zval =  1.0
     Generated using "atomic" code by A. Dal Corso  v.5.1
     Using radial grid of  929 points,  2 beta functions with:
                l(1) =   0
                l(2) =   0
     Q(r) pseudized with 0 coefficients

     atomic species   valence    mass     pseudopotential
        Gd            18.00   157.25000     Gd( 1.00)
        H              1.00     1.00794      H( 1.00)

     48 Sym. Ops., with inversion, found

   Cartesian axes

     site n.     atom                  positions (alat units)
         1           Gd  tau(   1) = (   0.0000000   0.0000000   0.0000000  )
         2           Gd  tau(   2) = (   0.0000000   0.5000000   0.5000000  )
         3           Gd  tau(   3) = (   0.5000000   0.0000000   0.5000000  )
         4           Gd  tau(   4) = (   0.5000000   0.5000000   0.0000000  )
         5           H   tau(   5) = (   0.2500000   0.2500000   0.2500000  )
         6           H   tau(   6) = (   0.2500000   0.7500000   0.7500000  )
         7           H   tau(   7) = (   0.7500000   0.2500000   0.7500000  )
         8           H   tau(   8) = (   0.7500000   0.7500000   0.2500000  )
         9           H   tau(   9) = (   0.2500000   0.7500000   0.2500000  )
        10           H   tau(  10) = (   0.2500000   0.2500000   0.7500000  )
        11           H   tau(  11) = (   0.7500000   0.7500000   0.7500000  )
        12           H   tau(  12) = (   0.7500000   0.2500000   0.2500000  )

     number of k points=    10  gaussian smearing, width (Ry)=  0.0100
                       cart. coord. in units 2pi/alat
        k(    1) = (   0.0000000   0.0000000   0.0000000), wk =   0.0312500
        k(    2) = (   0.0000000   0.0000000   0.2500000), wk =   0.1875000
        k(    3) = (   0.0000000   0.0000000  -0.5000000), wk =   0.0937500
        k(    4) = (   0.0000000   0.2500000   0.2500000), wk =   0.3750000
        k(    5) = (   0.0000000   0.2500000  -0.5000000), wk =   0.3750000
        k(    6) = (   0.0000000  -0.5000000  -0.5000000), wk =   0.0937500
        k(    7) = (   0.2500000   0.2500000   0.2500000), wk =   0.2500000
        k(    8) = (   0.2500000   0.2500000  -0.5000000), wk =   0.3750000
        k(    9) = (   0.2500000  -0.5000000  -0.5000000), wk =   0.1875000
        k(   10) = (  -0.5000000  -0.5000000  -0.5000000), wk =   0.0312500

     Initial potential from superposition of free atoms

[...]

     starting charge   79.97927, renormalised to   80.00000

[...]

     Initial potential from superposition of free atoms
     starting charge   79.97927, renormalised to   80.00000

[...]

     Initial potential from superposition of free atoms
     starting charge   79.97927, renormalised to   80.00000

     starting charge   79.97927, renormalised to   80.00000
     Initial potential from superposition of free atoms

[...]

     Initial potential from superposition of free atoms

     starting charge   79.97927, renormalised to   80.00000
     starting charge   79.97927, renormalised to   80.00000
     starting charge   79.97927, renormalised to   80.00000
     starting charge   79.97927, renormalised to   80.00000

     starting charge   79.97927, renormalised to   80.00000
     Starting wfc are  136 randomized atomic wfcs
     Starting wfc are  136 randomized atomic wfcs
     Starting wfc are  136 randomized atomic wfcs
     Starting wfc are  136 randomized atomic wfcs
     Starting wfc are  136 randomized atomic wfcs
     Starting wfc are  136 randomized atomic wfcs
     Starting wfc are  136 randomized atomic wfcs
     Starting wfc are  136 randomized atomic wfcs
     Starting wfc are  136 randomized atomic wfcs
     Starting wfc are  136 randomized atomic wfcs
     Starting wfc are  136 randomized atomic wfcs
     Starting wfc are  136 randomized atomic wfcs
     Starting wfc are  136 randomized atomic wfcs
     Starting wfc are  136 randomized atomic wfcs
     Starting wfc are  136 randomized atomic wfcs
     Starting wfc are  136 randomized atomic wfcs
     Checking if some PAW data can be deallocated...
     Checking if some PAW data can be deallocated...

     Self-consistent Calculation

[...]

     iteration #  1     ecut=    50.00 Ry     beta=0.70

     iteration #  1     ecut=    50.00 Ry     beta=0.70
     Davidson diagonalization with overlap
     Davidson diagonalization with overlap
     Checking if some PAW data can be deallocated...

[...]

     iteration #  1     ecut=    50.00 Ry     beta=0.70
     Checking if some PAW data can be deallocated...
     Davidson diagonalization with overlap

[...]

     iteration #  1     ecut=    50.00 Ry     beta=0.70
     Davidson diagonalization with overlap

[...]

     iteration #  1     ecut=    50.00 Ry     beta=0.70
     Davidson diagonalization with overlap
     Checking if some PAW data can be deallocated...
     Checking if some PAW data can be deallocated...

[...]

     iteration #  1     ecut=    50.00 Ry     beta=0.70
     Checking if some PAW data can be deallocated...

     Davidson diagonalization with overlap

     Self-consistent Calculation

     iteration #  1     ecut=    50.00 Ry     beta=0.70
     Davidson diagonalization with overlap
     ethr =  1.00E-02,  avg # of iterations =  1.0
     ethr =  1.00E-02,  avg # of iterations =  1.0
     ethr =  1.00E-02,  avg # of iterations =  1.0
     ethr =  1.00E-02,  avg # of iterations =  1.0
     ethr =  1.00E-02,  avg # of iterations =  1.0
     ethr =  1.00E-02,  avg # of iterations =  1.0
     ethr =  1.00E-02,  avg # of iterations =  1.0
     ethr =  1.00E-02,  avg # of iterations =  1.0
     ethr =  1.00E-02,  avg # of iterations =  1.0
     ethr =  1.00E-02,  avg # of iterations =  1.0
     ethr =  1.00E-02,  avg # of iterations =  1.0
     ethr =  1.00E-02,  avg # of iterations =  1.0
     ethr =  1.00E-02,  avg # of iterations =  1.0
     ethr =  1.00E-02,  avg # of iterations =  1.0
     ethr =  1.00E-02,  avg # of iterations =  1.0
     ethr =  1.00E-02,  avg # of iterations =  1.0

     total energy              =   -2716.84576712 Ry
     Harris-Foulkes estimate   =   -2743.78347362 Ry
     estimated scf accuracy    <      23.05371076 Ry

[...]

     ethr =  1.00E-02,  avg # of iterations =  1.0

[...]

     ethr =  1.00E-02,  avg # of iterations =  1.0
     iteration # 37     ecut=    50.00 Ry     beta=0.70
     Davidson diagonalization with overlap

[...]

     total energy              =   -2743.55855841 Ry
     Harris-Foulkes estimate   =   -2743.62367145 Ry
     Davidson diagonalization with overlap
     estimated scf accuracy    <       1.36928079 Ry

[...]

     iteration # 63     ecut=    50.00 Ry     beta=0.70

     Davidson diagonalization with overlap

[...]

     iteration # 66     ecut=    50.00 Ry     beta=0.70
     Davidson diagonalization with overlap
     ethr =  7.49E-06,  avg # of iterations =  2.3
     c_bands:  1 eigenvalues not converged
     ethr =  7.49E-06,  avg # of iterations =  2.3
     c_bands:  1 eigenvalues not converged

[...]

     iteration # 67     ecut=    50.00 Ry     beta=0.70
     Davidson diagonalization with overlap
     c_bands:  1 eigenvalues not converged
     c_bands:  1 eigenvalues not converged
     ethr =  7.49E-06,  avg # of iterations =  2.3
     c_bands:  1 eigenvalues not converged
     c_bands:  1 eigenvalues not converged
     c_bands:  1 eigenvalues not converged
     ethr =  7.49E-06,  avg # of iterations =  2.3

[...]

     iteration # 67     ecut=    50.00 Ry     beta=0.70
     Davidson diagonalization with overlap
     c_bands:  1 eigenvalues not converged

[...]

     iteration # 67     ecut=    50.00 Ry     beta=0.70
     Davidson diagonalization with overlap
     ethr =  7.49E-06,  avg # of iterations =  2.3
     c_bands:  1 eigenvalues not converged

[...]

     iteration # 67     ecut=    50.00 Ry     beta=0.70
     Davidson diagonalization with overlap
     ethr =  7.49E-06,  avg # of iterations = 10.8
     c_bands:  1 eigenvalues not converged
     c_bands:  1 eigenvalues not converged
     ethr =  7.49E-06,  avg # of iterations = 10.8
     ethr =  7.49E-06,  avg # of iterations = 10.8
     ethr =  7.49E-06,  avg # of iterations = 10.8
     ethr =  7.49E-06,  avg # of iterations = 10.8
     c_bands:  1 eigenvalues not converged
     ethr =  7.49E-06,  avg # of iterations = 10.8
     ethr =  7.49E-06,  avg # of iterations = 10.8
     c_bands:  1 eigenvalues not converged

[...]

     iteration # 67     ecut=    50.00 Ry     beta=0.70
     Davidson diagonalization with overlap
     c_bands:  1 eigenvalues not converged
     ethr =  7.49E-06,  avg # of iterations = 10.8

[...]

     iteration # 68     ecut=    50.00 Ry     beta=0.70
     Davidson diagonalization with overlap
     c_bands:  1 eigenvalues not converged
     ethr =  7.49E-06,  avg # of iterations = 10.8
     ethr =  7.49E-06,  avg # of iterations = 10.8

[...]

     ethr =  5.60E-09,  avg # of iterations =  1.4

[...]

     End of self-consistent calculation

          k = 0.0000 0.0000 0.0000 (  4801 PWs)   bands (ev):

   -28.2030 -28.0261 -28.0261 -28.0261  -6.9512  -6.9512  -6.9512  -6.0265
    -6.0265  -6.0265  -6.0265  -6.0265  -6.0265  -5.5940  -5.5940  -5.5940
     6.0677   8.6006   8.6006   8.6006  11.4881  11.4881  11.4881  11.5426
    12.1069  12.1069  12.1071  13.4910  13.4910  13.4910  13.4988  13.4988
    13.4988  13.4988  13.4988  13.4988  13.6214  13.6214  13.6214  13.7192
    13.7192  13.7192  13.7961  13.7961  13.7961  13.7962  13.7962  13.7962

[...]

          k =-0.5000-0.5000-0.5000 (  4776 PWs)   bands (ev):

[...]

     the Fermi energy is    13.6868 ev

!    total energy              =   -2743.61510057 Ry
     Harris-Foulkes estimate   =   -2743.61510060 Ry
     estimated scf accuracy    <       0.00000003 Ry

     The total energy is the sum of the following terms:

     one-electron contribution =    -351.19213540 Ry
     hartree contribution      =     237.37078412 Ry
     xc contribution           =     -96.92534324 Ry
     ewald contribution        =    -668.42744267 Ry
     one-center paw contrib.   =   -1864.39098356 Ry
     smearing contrib. (-TS)   =      -0.04997982 Ry

     convergence has been achieved in  91 iterations

[...]

     iteration # 91     ecut=    50.00 Ry     beta=0.70
     Davidson diagonalization with overlap
     ethr =  4.83E-09,  avg # of iterations =  1.0
     ethr =  5.60E-09,  avg # of iterations =  1.4

[...]

     Forces acting on atoms (cartesian axes, Ry/au):

     atom    1 type  1   force =     0.00000000    0.00000000    0.00000000
     atom    2 type  1   force =     0.00000000    0.00000000    0.00000000
     atom    3 type  1   force =     0.00000000    0.00000000    0.00000000
     atom    4 type  1   force =     0.00000000    0.00000000    0.00000000
     atom    5 type  2   force =    -0.00000357   -0.00000357   -0.00000357
     atom    6 type  2   force =    -0.00000357    0.00000357    0.00000357
     atom    7 type  2   force =     0.00000357   -0.00000357    0.00000357
     atom    8 type  2   force =     0.00000357    0.00000357   -0.00000357
     atom    9 type  2   force =    -0.00000357    0.00000357   -0.00000357
     atom   10 type  2   force =    -0.00000357   -0.00000357    0.00000357
     atom   11 type  2   force =     0.00000357    0.00000357    0.00000357
     atom   12 type  2   force =     0.00000357   -0.00000357   -0.00000357

     Total force =     0.000017     Total SCF correction =     0.000024
     SCF correction compared to forces is large: reduce conv_thr to get better values

     BFGS Geometry Optimization

     bfgs converged in   1 scf cycles and   0 bfgs steps
     (criteria: energy <  1.0E-04 Ry, force <  1.0E-03 Ry/Bohr)

     End of BFGS Geometry Optimization

     Final energy   =   -2743.6151005679 Ry
Begin final coordinates

ATOMIC_POSITIONS (crystal)
Gd       0.000000000   0.000000000   0.000000000
Gd       0.000000000   0.500000000   0.500000000
Gd       0.500000000   0.000000000   0.500000000
Gd       0.500000000   0.500000000   0.000000000
H        0.250000000   0.250000000   0.250000000
H        0.250000000   0.750000000   0.750000000
H        0.750000000   0.250000000   0.750000000
H        0.750000000   0.750000000   0.250000000
H        0.250000000   0.750000000   0.250000000
H        0.250000000   0.250000000   0.750000000
H        0.750000000   0.750000000   0.750000000
H        0.750000000   0.250000000   0.250000000
End final coordinates

     Writing output data file 2245.save

[...]

     convergence has been achieved in  91 iterations
     ethr =  5.60E-09,  avg # of iterations =  1.4

[...]

     End of self-consistent calculation

[...]

          k = 0.2500-0.5000-0.5000 (  4796 PWs)   bands (ev):

[...]

          k =-0.5000-0.5000-0.5000 (  4776 PWs)   bands (ev):

   -28.0698 -28.0698 -28.0698 -28.0698  -6.9761  -6.9761  -6.9761  -6.9760
    -5.7526  -5.7526  -5.7526  -5.7525  -5.7525  -5.7525  -5.7525  -5.7525
     7.9028   7.9028   7.9028   7.9028  11.4257  11.4257  11.4257  11.4257
    13.4667  13.4667  13.4667  13.4667  13.4667  13.4667  13.4668  13.4668
    13.6047  13.6047  13.6047  13.6048  13.7275  13.7275  13.7275  13.7276
    13.8205  13.8205  13.8205  13.8206  13.8206  13.8206  13.8206  13.8206

     the Fermi energy is    13.6868 ev

!    total energy              =   -2743.61510057 Ry
     Harris-Foulkes estimate   =   -2743.61510060 Ry
     estimated scf accuracy    <       0.00000003 Ry

     The total energy is the sum of the following terms:

     one-electron contribution =    -351.19213540 Ry
     hartree contribution      =     237.37078412 Ry
     xc contribution           =     -96.92534324 Ry
     ewald contribution        =    -668.42744267 Ry
     one-center paw contrib.   =   -1864.39098356 Ry
     smearing contrib. (-TS)   =      -0.04997982 Ry

     convergence has been achieved in  91 iterations

[...]

     Total force =     0.000017     Total SCF correction =     0.000024
     SCF correction compared to forces is large: reduce conv_thr to get better values
     ethr =  4.83E-09,  avg # of iterations =  1.0

[...]

     total energy              =   -2743.61510057 Ry
     Harris-Foulkes estimate   =   -2743.61510059 Ry
     estimated scf accuracy    <       0.00000387 Ry

     iteration # 91     ecut=    50.00 Ry     beta=0.70
     Davidson diagonalization with overlap

[...]

     Forces acting on atoms (cartesian axes, Ry/au):

     atom    1 type  1   force =     0.00000000    0.00000000    0.00000000
     atom    2 type  1   force =     0.00000000    0.00000000    0.00000000
     atom    3 type  1   force =     0.00000000    0.00000000    0.00000000
     atom    4 type  1   force =     0.00000000    0.00000000    0.00000000
     atom    5 type  2   force =    -0.00000357   -0.00000357   -0.00000357
     atom    6 type  2   force =    -0.00000357    0.00000357    0.00000357
     atom    7 type  2   force =     0.00000357   -0.00000357    0.00000357
     atom    8 type  2   force =     0.00000357    0.00000357   -0.00000357
     atom    9 type  2   force =    -0.00000357    0.00000357   -0.00000357
     atom   10 type  2   force =    -0.00000357   -0.00000357    0.00000357
     atom   11 type  2   force =     0.00000357    0.00000357    0.00000357
     atom   12 type  2   force =     0.00000357   -0.00000357   -0.00000357

     Total force =     0.000017     Total SCF correction =     0.000024
     SCF correction compared to forces is large: reduce conv_thr to get better values

     General routines

     General routines

     Parallel routines

     Parallel routines

[...]

     BFGS Geometry Optimization

     bfgs converged in   1 scf cycles and   0 bfgs steps
     (criteria: energy <  1.0E-04 Ry, force <  1.0E-03 Ry/Bohr)

     End of BFGS Geometry Optimization

     Final energy   =   -2743.6151005679 Ry
Begin final coordinates

ATOMIC_POSITIONS (crystal)
Gd       0.000000000   0.000000000   0.000000000
Gd       0.000000000   0.500000000   0.500000000
Gd       0.500000000   0.000000000   0.500000000
Gd       0.500000000   0.500000000   0.000000000
H        0.250000000   0.250000000   0.250000000
H        0.250000000   0.750000000   0.750000000
H        0.750000000   0.250000000   0.750000000
H        0.750000000   0.750000000   0.250000000
H        0.250000000   0.750000000   0.250000000
H        0.250000000   0.250000000   0.750000000
H        0.750000000   0.750000000   0.750000000
H        0.750000000   0.250000000   0.250000000
End final coordinates

     Writing output data file 2245.save

   This run was terminated on:  12:49:42   3Jul2022

   JOB DONE.

   This run was terminated on:  12:49:42   3Jul2022

   JOB DONE.